&CONTROL
    calculation   = "nscf"
    forc_conv_thr =  1.0D-04
    etot_conv_thr =  1.0D-6
    nstep         =  100
    pseudo_dir    =  "./"
    outdir        =  "./wfc-out"    
    lberry        = .true.
    gdir          = 1
    nppstr        = 14
/

&SYSTEM
    ecutrho     =  500
    ecutwfc     =  60
    ibrav       =  0
    nat         =  4
    ntyp        =  2
    occupations =  fixed
    degauss     =  0.00
/

&ELECTRONS
    conv_thr         =  1.0D-10
    electron_maxstep =  200
    mixing_beta      =  7.00000e-01
/


K_POINTS (automatic)
 14 14 1 0 0 0


ATOMIC_SPECIES
B      10.81100  B_pbe_v1.01.uspp.F.UPF
N      14.00674  N.oncvpsp.upf

CELL_PARAMETERS (angstrom)
4.3471183275 0.000000000 0.000000000
0.000000000  2.5097901127 0.000000000
0.000000000  0.000000000  20.000000000

ATOMIC_POSITIONS (crystal)
N             0.0000146184        0.0000000000        0.5000000000
B             0.3333444611        0.0000000000        0.5000000000
N             0.5000149742        0.5000000000        0.5000000000
B             0.8333429463        0.5000000000        0.5000000000
