S  Se Sn Pb
   1.000
4.2173294983280067 0.0000000000000000 0.0000000000000000
    0.0000000000000000    8.5208609386717562    0.0000000000000000
    0.0000000000000000    0.0000000000000000   30.0751317399999998
   S    Se   Sn   Pb
    6    4    4    6
Direct
    0.5246155402417676    0.3410991957992442    0.6949962947354402     S1
    0.5248034117146151    0.3349515973686717    0.4989303343080819     S2
    0.5248037441401556    0.8349515908883008    0.4989303351218728     S3
    0.5246154672811508    0.8410991954895572    0.6949962946622223     S4
    0.0244069332063478    0.5982622862696796    0.6029417549643140     S5
    0.0244069399009522    0.0982622849330102    0.6029417540136710     S6
    0.5245580870407488    0.8366003239522121    0.3047833514997498    Se1
    0.0245537776373023    0.5887865813642555    0.3988887102958270    Se2
    0.5245581899924038    0.3366003239935847    0.3047833486694118    Se3
    0.0245537981790037    0.0887865838967603    0.3988887121413742    Se4
    0.5243726928844237    0.8446200078283281    0.4002314428086970    Sn1
    0.0238893172610831    0.6110341260503652    0.3044533316972022    Sn2
    0.5243726553829894    0.3446200094783777    0.4002314401926568    Sn3
    0.0238895163138362    0.1110341151985352    0.3044533341554154    Sn4
    0.0240109533070914    0.1131509416590338    0.6963223436376745    Pb1
    0.0241118662741906    0.1066506875958486    0.5018746158053303    Pb2
    0.0241125994631421    0.6066506792379300    0.5018746132419304    Pb3
    0.0240106462552347    0.6131509405369880    0.6963223487311172    Pb4
    0.5242491412664023    0.3525259380753739    0.6013164261737280    Pb5
    0.5242491436112116    0.8525259370576497    0.6013164271583449    Pb6
