 POSCAR with strain of -0.005           
   1.00000000000000     
     4.3604449811140000   -0.0109558919120000    0.0000000000000000
    -0.0107311946430000    4.2924778571899997    0.0000000000000000
     0.0000000000000000    0.0000000000000000   20.0000000000000000
   Sn   Se
     2     2
Direct
  0.5785731847963067  0.7472142148100298  0.5686866983598362
  0.0785731847963066  0.2472142148100299  0.4313133016401636
  0.0355308162036946  0.2527857851899700  0.5672144618448559
  0.5355307882036922  0.7527857851899702  0.4327855381551514
 
  0.00000000E+00  0.00000000E+00  0.00000000E+00
  0.00000000E+00  0.00000000E+00  0.00000000E+00
  0.00000000E+00  0.00000000E+00  0.00000000E+00
  0.00000000E+00  0.00000000E+00  0.00000000E+00
