Generated by VASPKIT code               
   1.00000000000000     
     3.3635995388000000    0.0000000000000000    0.0000000000000000
     0.0000000000000000    5.8142739753459995    0.0000000000000000
     0.0000000000000000    0.0000000000000000   20.2525882720999988
   Mo   S    Te
     2     2     2
Direct
  0.4999999898219372  0.1667566085059207  0.5070451704515335
  0.9999999893659108  0.6667563775144387  0.5070459183484672
  0.4999999860571691  0.8332832181769660  0.5798342771348572
  0.9999999898460530  0.3332808366609470  0.5798339135654444
  0.4999999929156687  0.8332959233732922  0.4131200883780579
  0.9999999919932492  0.3332930677684445  0.4131205141216299
 
  0.00000000E+00  0.00000000E+00  0.00000000E+00
  0.00000000E+00  0.00000000E+00  0.00000000E+00
  0.00000000E+00  0.00000000E+00  0.00000000E+00
  0.00000000E+00  0.00000000E+00  0.00000000E+00
  0.00000000E+00  0.00000000E+00  0.00000000E+00
  0.00000000E+00  0.00000000E+00  0.00000000E+00
