B  O                                    
   1.00000000000000     
     6.6314145817462764    0.0000000000000000    0.0000000000000000
     0.0000000000000000    4.4521846336971915    0.0000000000000000
     0.0000000000000000    0.0000000000000000   23.7642002300000037
   B    O 
     4     6
Direct
  0.1706045599569681  0.3027779504913528  0.5273998861059233
  0.8359798129553297  0.3027785131838316  0.4725885289481300
  0.6706035725751139  0.8027778775403982  0.4725992083093630
  0.3359805796862299  0.8027788861070809  0.5274103763196263
  0.6866392914712643  0.5021616984655902  0.4587156465958481
  0.3199245373600099  0.5021616813320928  0.5412893768468208
  0.1866385363041521  0.0021633136198359  0.5412830612757017
  0.8199250229213502  0.0021622992241040  0.4587094784976304
  0.0033152102687789  0.4116641118595663  0.4999833717589420
  0.5033175119893692  0.9116636791279691  0.5000154447026297
 
  0.00000000E+00  0.00000000E+00  0.00000000E+00
  0.00000000E+00  0.00000000E+00  0.00000000E+00
  0.00000000E+00  0.00000000E+00  0.00000000E+00
  0.00000000E+00  0.00000000E+00  0.00000000E+00
  0.00000000E+00  0.00000000E+00  0.00000000E+00
  0.00000000E+00  0.00000000E+00  0.00000000E+00
  0.00000000E+00  0.00000000E+00  0.00000000E+00
  0.00000000E+00  0.00000000E+00  0.00000000E+00
  0.00000000E+00  0.00000000E+00  0.00000000E+00
  0.00000000E+00  0.00000000E+00  0.00000000E+00
