generated by phonopy
   1.0
    14.1980946090471960    0.0000000000000000    0.0000000000000000
    -7.0990473043241140   12.2959106167996346    0.0000000000000000
     0.0000000000000000    0.0000000000000000   20.0000000000000000
Mo Te
  16   32
Direct
  0.0837410455767457  0.1666666717500007  0.5004077028267487
  0.3333333357500000  0.1666666717500007  0.4999999930000030
  0.5833333357499999  0.1666666717500007  0.4999999930000030
  0.8333333357499999  0.1666666717500007  0.4999999930000030
  0.0833333357499999  0.4166666717500007  0.4999999930000030
  0.3333333357500000  0.4166666717500007  0.4999999930000030
  0.5833333357499999  0.4166666717500007  0.4999999930000030
  0.8333333357499999  0.4166666717500007  0.4999999930000030
  0.0833333357499999  0.6666666717500007  0.4999999930000030
  0.3333333357500000  0.6666666717500007  0.4999999930000030
  0.5833333357499999  0.6666666717500007  0.4999999930000030
  0.8333333357499999  0.6666666717500007  0.4999999930000030
  0.0833333357499999  0.9166666717500008  0.4999999930000030
  0.3333333357500000  0.9166666717500008  0.4999999930000030
  0.5833333357499999  0.9166666717500008  0.4999999930000030
  0.8333333357499999  0.9166666717500008  0.4999999930000030
  0.1666666717500007  0.0833333357499999  0.4097234371897338
  0.4166666717500007  0.0833333357499999  0.4097234371897338
  0.6666666717500008  0.0833333357499999  0.4097234371897338
  0.9166666717500008  0.0833333357499999  0.4097234371897338
  0.1666666717500007  0.3333333357499999  0.4097234371897338
  0.4166666717500007  0.3333333357499999  0.4097234371897338
  0.6666666717500007  0.3333333357499999  0.4097234371897338
  0.9166666717500007  0.3333333357499999  0.4097234371897338
  0.1666666717500007  0.5833333357499999  0.4097234371897338
  0.4166666717500007  0.5833333357499999  0.4097234371897338
  0.6666666717500007  0.5833333357499999  0.4097234371897338
  0.9166666717500007  0.5833333357499999  0.4097234371897338
  0.1666666717500007  0.8333333357500000  0.4097234371897338
  0.4166666717500008  0.8333333357500000  0.4097234371897338
  0.6666666717500008  0.8333333357500000  0.4097234371897338
  0.9166666717500008  0.8333333357500000  0.4097234371897338
  0.1666666717500007  0.0833333357499999  0.5902765628102663
  0.4166666717500007  0.0833333357499999  0.5902765628102663
  0.6666666717500008  0.0833333357499999  0.5902765628102663
  0.9166666717500008  0.0833333357499999  0.5902765628102663
  0.1666666717500007  0.3333333357499999  0.5902765628102663
  0.4166666717500007  0.3333333357499999  0.5902765628102663
  0.6666666717500007  0.3333333357499999  0.5902765628102663
  0.9166666717500007  0.3333333357499999  0.5902765628102663
  0.1666666717500007  0.5833333357499999  0.5902765628102663
  0.4166666717500007  0.5833333357499999  0.5902765628102663
  0.6666666717500007  0.5833333357499999  0.5902765628102663
  0.9166666717500007  0.5833333357499999  0.5902765628102663
  0.1666666717500007  0.8333333357500000  0.5902765628102663
  0.4166666717500008  0.8333333357500000  0.5902765628102663
  0.6666666717500008  0.8333333357500000  0.5902765628102663
  0.9166666717500008  0.8333333357500000  0.5902765628102663
