Se Sn                                   
   1.00000000000000     
     4.3777134034494658    0.0000062138715948    0.0000000000000000
     0.0000060631536394    4.2595591013983718    0.0000000000000000
     0.0000000000000000    0.0000000000000000   24.7585268899999988
   Se   Sn
     2     2
Direct
  0.0738502666723257  0.9999102955591227  0.4458123592044659
  0.5738476436768331  0.4999113962633880  0.5541923619201270
  0.1184672574108100  0.9999131590936742  0.5556387820766509
  0.6184650679475499  0.4999139342309524  0.4443622826841909
 
  0.00000000E+00  0.00000000E+00  0.00000000E+00
  0.00000000E+00  0.00000000E+00  0.00000000E+00
  0.00000000E+00  0.00000000E+00  0.00000000E+00
  0.00000000E+00  0.00000000E+00  0.00000000E+00
