Generated by VASPKIT code               
   1.00000000000000     
     3.3635995388000000    0.0000000000000000    0.0000000000000000
     0.0000000000000000    5.8434036044809998    0.0000000000000000
     0.0000000000000000    0.0000000000000000   20.2525882720999988
   Mo   S    Te
     2     2     2
Direct
  0.4999999903239072  0.1665312267208208  0.5070343213456496
  0.9999999891006084  0.6665312407582604  0.5070343645676019
  0.4999999859212281  0.8334095156056378  0.5796814210803447
  0.9999999896734693  0.3334094394784302  0.5796813966487804
  0.4999999935424668  0.8333923903829472  0.4132841764806656
  0.9999999914383153  0.3333922190539198  0.4132842018769480
 
  0.00000000E+00  0.00000000E+00  0.00000000E+00
  0.00000000E+00  0.00000000E+00  0.00000000E+00
  0.00000000E+00  0.00000000E+00  0.00000000E+00
  0.00000000E+00  0.00000000E+00  0.00000000E+00
  0.00000000E+00  0.00000000E+00  0.00000000E+00
  0.00000000E+00  0.00000000E+00  0.00000000E+00
