Generated by VASPKIT code               
   1.00000000000000     
     3.3635995388000000    0.0000000000000000    0.0000000000000000
     0.0000000000000000    5.8434036044809998    0.0000000000000000
     0.0000000000000000    0.0000000000000000   20.2525882720999988
   Mo   S    Te
     2     2     2
Direct
  0.4999999903239076  0.1665312267208219  0.5070343213456484
 -0.0000000108993929  0.6665312407582584  0.5070343645676005
  0.4999999859212276  0.8334095156056345  0.5796814210803446
 -0.0000000103265306  0.3334094394784279  0.5796813966487775
  0.4999999935424691  0.8333923903829490  0.4132841764806654
 -0.0000000085616857  0.3333922190539175  0.4132842018769469
 
  0.00000000E+00  0.00000000E+00  0.00000000E+00
  0.00000000E+00  0.00000000E+00  0.00000000E+00
  0.00000000E+00  0.00000000E+00  0.00000000E+00
  0.00000000E+00  0.00000000E+00  0.00000000E+00
  0.00000000E+00  0.00000000E+00  0.00000000E+00
  0.00000000E+00  0.00000000E+00  0.00000000E+00
