 POSCAR with strain of 0.005            
   1.00000000000000     
     4.4042685487639996    0.0109558919120000    0.0000000000000000
     0.0107311946430000    4.2924778571899997    0.0000000000000000
     0.0000000000000000    0.0000000000000000   20.0000000000000000
   Sn   Se
     2     2
Direct
  0.5832963991797210  0.7521171799254693  0.5687837263315388
  0.0832963991797208  0.2521171799254694  0.4312162736684613
  0.0308076018202804  0.2478828200745306  0.5669376420511445
  0.5308075738202779  0.7478828200745307  0.4330623579488627
 
  0.00000000E+00  0.00000000E+00  0.00000000E+00
  0.00000000E+00  0.00000000E+00  0.00000000E+00
  0.00000000E+00  0.00000000E+00  0.00000000E+00
  0.00000000E+00  0.00000000E+00  0.00000000E+00
