S  Pb                                   
   1.00000000000000     
     4.2157251494342418    0.0000000000000000    0.0000000000000000
     0.0000000000000000    8.4907620797994827    0.0000000000000000
     0.0000000000000000    0.0000000000000000   27.8166048499999974
   S    Pb
     6     6
Direct
  0.4999999474692274  0.3889422449700888  0.6046881606213859
  0.5000000450327775  0.3889422440400736  0.3953118420916297
  0.4999999569699440  0.8889422424369400  0.3953118436214353
  0.5000000358053853  0.8889422374132963  0.6046881626992686
  0.0000000001150227  0.6516113362677558  0.5000000037118895
  0.0000000000100684  0.1516113433795070  0.5000000026313032
  0.9999999210121970  0.1658375256057241  0.6038206946952442
  0.0000000799368678  0.1658375345447638  0.3961793019723530
  0.9999999047101227  0.6658375360459630  0.3961793017066313
  0.0000000979396617  0.6658375417385969  0.6038206958025825
  0.5000000014182291  0.4049512879724446  0.4999999935760826
  0.5000000015339410  0.9049512903408967  0.4999999975891782
 
  0.00000000E+00  0.00000000E+00  0.00000000E+00
  0.00000000E+00  0.00000000E+00  0.00000000E+00
  0.00000000E+00  0.00000000E+00  0.00000000E+00
  0.00000000E+00  0.00000000E+00  0.00000000E+00
  0.00000000E+00  0.00000000E+00  0.00000000E+00
  0.00000000E+00  0.00000000E+00  0.00000000E+00
  0.00000000E+00  0.00000000E+00  0.00000000E+00
  0.00000000E+00  0.00000000E+00  0.00000000E+00
  0.00000000E+00  0.00000000E+00  0.00000000E+00
  0.00000000E+00  0.00000000E+00  0.00000000E+00
  0.00000000E+00  0.00000000E+00  0.00000000E+00
  0.00000000E+00  0.00000000E+00  0.00000000E+00
