S  Pb                                   
   1.00000000000000     
     4.2157251494342418    0.0000000000000000    0.0000000000000000
     0.0000000000000000    8.4907620797994827    0.0000000000000000
     0.0000000000000000    0.0000000000000000   27.8166048499999974
   S    Pb
     6     6
Direct
  0.4999999474692308  0.3889422449700855  0.6046881606213829
  0.5000000450327756  0.3889422440400701  0.3953118420916275
  0.4999999569699460  0.8889422424369410  0.3953118436214336
  0.5000000358053851  0.8889422374132960  0.6046881626992691
  0.0000000001150247  0.6516113362677562  0.5000000037118890
  0.0000000000100681  0.1516113433795098  0.5000000026313032
  0.9999999210121990  0.1658375256057229  0.6038206946952477
  0.0000000799368708  0.1658375345447649  0.3961793019723556
  0.9999999047101258  0.6658375360459596  0.3961793017066286
  0.0000000979396599  0.6658375417385970  0.6038206958025846
  0.5000000014182303  0.4049512879724425  0.4999999935760834
  0.5000000015339424  0.9049512903408984  0.4999999975891792
 
  0.00000000E+00  0.00000000E+00  0.00000000E+00
  0.00000000E+00  0.00000000E+00  0.00000000E+00
  0.00000000E+00  0.00000000E+00  0.00000000E+00
  0.00000000E+00  0.00000000E+00  0.00000000E+00
  0.00000000E+00  0.00000000E+00  0.00000000E+00
  0.00000000E+00  0.00000000E+00  0.00000000E+00
  0.00000000E+00  0.00000000E+00  0.00000000E+00
  0.00000000E+00  0.00000000E+00  0.00000000E+00
  0.00000000E+00  0.00000000E+00  0.00000000E+00
  0.00000000E+00  0.00000000E+00  0.00000000E+00
  0.00000000E+00  0.00000000E+00  0.00000000E+00
  0.00000000E+00  0.00000000E+00  0.00000000E+00
