&input
  fildyn='reGraphene.dyn',
  zasr='simple', 
  flfrc='reGraphene.fc'
 /

