Se Sn                                   
   1.00000000000000     
     4.3952242570632638    0.0000062138715948    0.0000000000000000
     0.0000060631536394    4.2939103844741648    0.0000000000000000
     0.0000000000000000    0.0000000000000000   24.7585268899999988
   Se   Sn
     2     2
Direct
  0.0707540136255560  0.9999117143893044  0.4458904018818621
  0.5707684304434116  0.4999091198087908  0.5541129471945717
  0.1215514915552497  0.9999144410833802  0.5555383270270019
  0.6215563000833019  0.4999135098656617  0.4444641097819992
 
  0.00000000E+00  0.00000000E+00  0.00000000E+00
  0.00000000E+00  0.00000000E+00  0.00000000E+00
  0.00000000E+00  0.00000000E+00  0.00000000E+00
  0.00000000E+00  0.00000000E+00  0.00000000E+00
