Se Sn                                   
   1.00000000000000     
     4.3602025498356678    0.0000062138715948    0.0000000000000000
     0.0000060631536394    4.2939103844741648    0.0000000000000000
     0.0000000000000000    0.0000000000000000   24.7585268899999988
   Se   Sn
     2     2
Direct
  0.0744941641603173  0.9999119614055928  0.4457358760046434
  0.5745097990185550  0.4999089424134813  0.5542664920975192
  0.1178098612504646  0.9999143363665726  0.5554895134387812
  0.6178164112781822  0.4999135449614906  0.4445139043444909
 
  0.00000000E+00  0.00000000E+00  0.00000000E+00
  0.00000000E+00  0.00000000E+00  0.00000000E+00
  0.00000000E+00  0.00000000E+00  0.00000000E+00
  0.00000000E+00  0.00000000E+00  0.00000000E+00
