 POSCAR with strain of -0.005           
   1.00000000000000     
     4.3604449811140000    0.0000000000000000    0.0000000000000000
     0.0000000000000000    4.2924778571899997    0.0000000000000000
     0.0000000000000000    0.0000000000000000   20.0000000000000000
   Sn   Se
     2     2
Direct
  0.5786314241926366  0.7499999907676445  0.5687069200996088
  0.0786314762628665  0.2499999919726343  0.4312933273650003
  0.0354725781052629  0.2500000092760667  0.5671885596710845
  0.5354724954392341  0.7500000079836547  0.4328111928643131
 
  0.00000000E+00  0.00000000E+00  0.00000000E+00
  0.00000000E+00  0.00000000E+00  0.00000000E+00
  0.00000000E+00  0.00000000E+00  0.00000000E+00
  0.00000000E+00  0.00000000E+00  0.00000000E+00
