generated by phonopy                    
   1.00000000000000     
     3.5495236522617990    0.0000000000000000    0.0000000000000000
    -1.7747618260810285    3.0739776541999086    0.0000000000000000
     0.0000000000000000    0.0000000000000000   20.0000000000000000
   Mo   Te
     1     2
Direct
  0.3333333429999996  0.6666666870000029  0.4999999930000030
  0.6671589938201450  0.3333333429999996  0.4102157440098750
  0.6666666870000029  0.3333333429999996  0.5902765628102671
 
  0.00000000E+00  0.00000000E+00  0.00000000E+00
  0.00000000E+00  0.00000000E+00  0.00000000E+00
  0.00000000E+00  0.00000000E+00  0.00000000E+00
