Mo Te                                   
   1.00000000000000     
     6.3940267105187152    0.0000000000000000    0.0000000000000000
     0.0000000000000000    3.4074920172550214    0.0000000000000000
     0.0000000000000000    0.0000000000000000   28.0000000000000000
   Mo   Te
     2     4
Direct
  1.0282265082613631  0.9410645135901964  0.4998517158056758
  0.4510845718878548  0.4288783841604640  0.4995876863989822
  0.6588467690594600  0.9508422570096811  0.4393337480745797
  0.1513119019308144  0.4576436416064285  0.4295185779986053
  0.6791458283779238  0.8847088015728700  0.5594476516504924
  0.1765391670632523  0.3769530464356459  0.5722606412105286
 
             NaN             NaN             NaN
             NaN             NaN             NaN
             NaN             NaN             NaN
             NaN             NaN             NaN
             NaN             NaN             NaN
             NaN             NaN             NaN
