 POSCAR with strain of -0.003           
   1.00000000000000     
     4.3823567649389998   -0.0054779459560000   -0.0054779459560000
    -0.0053655973210000    4.2924778571899997   -0.0053655973210000
    -0.0250000000000000   -0.0250000000000000   19.9499999999999993
   Sn   Se
     2     2
Direct
  0.5820785960390871  0.7496198379078640  0.5689174883795162
  0.0802658415431215  0.2480240913412018  0.4310854739892624
  0.0337288936554624  0.2519773881455784  0.5672344421504106
  0.5321346427623292  0.7503786826053559  0.4327625954808176
 
  0.00000000E+00  0.00000000E+00  0.00000000E+00
  0.00000000E+00  0.00000000E+00  0.00000000E+00
  0.00000000E+00  0.00000000E+00  0.00000000E+00
  0.00000000E+00  0.00000000E+00  0.00000000E+00
