Mo Te                                   
   1.00000000000000     
     6.3940267105187152    0.0000000000000000    0.0000000000000000
     0.0000000000000000    3.4074920172550214    0.0000000000000000
     0.0000000000000000    0.0000000000000000   28.0000000000000000
   Mo   Te
     2     4
Direct
  1.0333694880999078  1.0148440382871060  0.4963482558026199
  0.4078355997862711  0.4714424002727150  0.4992299448967625
  0.6449936513029449  0.9997145870704010  0.4412995429868958
  0.1367049189489305  0.5116983902725017  0.4252227795228247
  0.7149851248386586  0.7692945126066781  0.5579782681356806
  0.2057196916449610  0.2569477751743478  0.5799212297777393
 
             NaN             NaN             NaN
             NaN             NaN             NaN
             NaN             NaN             NaN
             NaN             NaN             NaN
             NaN             NaN             NaN
             NaN             NaN             NaN
