Mo Te 
 1.0000000000000000
     6.3940267105187152    0.0000000000000000    0.0000000000000000
     0.0000000000000000    3.4074920172550214    0.0000000000000000
     0.0000000000000000    0.0000000000000000   28.0000000000000000
   2   4
Cartesian
 -0.0001790090174676 -0.0000000007566467 13.9562089707968315
  2.7639403560198246  1.7037460077408397 14.0437799664635037
  4.1128086576545622 -0.0000000036670644 12.3527355967404944
  0.8880500965750184  1.7037460080771962 12.0638054084006523
  4.5481545057966786 -0.8518730039410696 15.6472605530106890
  1.3788573506456439  0.8518730098017657 15.9362100953401864
