Generated by VASPKIT code               
   1.00000000000000     
     3.3635995388000000    0.0000000000000000    0.0000000000000000
     0.0000000000000000    5.7967961978649996    0.0000000000000000
     0.0000000000000000    0.0000000000000000   20.2525882720999988
   Mo   S    Te
     2     2     2
Direct
  0.4999999903266499  0.1669009550024896  0.5070538666742621
  0.9999999890237632  0.6669011044019015  0.5070536724381327
  0.4999999858905753  0.8332004703201150  0.5799243224083881
  0.9999999894733733  0.3332002228345630  0.5799243194059329
  0.4999999935447832  0.8332314766492246  0.4130218765136462
  0.9999999917408502  0.3332318027917225  0.4130218245596140
 
  0.00000000E+00  0.00000000E+00  0.00000000E+00
  0.00000000E+00  0.00000000E+00  0.00000000E+00
  0.00000000E+00  0.00000000E+00  0.00000000E+00
  0.00000000E+00  0.00000000E+00  0.00000000E+00
  0.00000000E+00  0.00000000E+00  0.00000000E+00
  0.00000000E+00  0.00000000E+00  0.00000000E+00
