Generated by VASPKIT code               
   1.00000000000000     
     3.3635995388000000    0.0000000000000000    0.0000000000000000
     0.0000000000000000    5.8200999011730001    0.0000000000000000
     0.0000000000000000    0.0000000000000000   20.2525882720999988
   Mo   S    Te
     2     2     2
Direct
  0.4999999917547555  0.1667149269705916  0.5070450479557991
  0.9999999881183328  0.6667149336796783  0.5070450104956095
  0.4999999850852532  0.8333051809163123  0.5798022192095758
  0.9999999890024327  0.3333052104002547  0.5798022331290653
  0.4999999949447300  0.8333128134519114  0.4131526987759102
  0.9999999910944979  0.3333129665812606  0.4131526724340304
 
  0.00000000E+00  0.00000000E+00  0.00000000E+00
  0.00000000E+00  0.00000000E+00  0.00000000E+00
  0.00000000E+00  0.00000000E+00  0.00000000E+00
  0.00000000E+00  0.00000000E+00  0.00000000E+00
  0.00000000E+00  0.00000000E+00  0.00000000E+00
  0.00000000E+00  0.00000000E+00  0.00000000E+00
