Generated by VASPKIT code               
   1.00000000000000     
     3.3635995388000000    0.0000000000000000    0.0000000000000000
     0.0000000000000000    5.8200999011730001    0.0000000000000000
     0.0000000000000000    0.0000000000000000   20.2525882720999988
   Mo   S    Te
     2     2     2
Direct
  0.4999999917547533  0.1667149269705887  0.5070450479557997
 -0.0000000118816706  0.6667149336796789  0.5070450104956061
  0.4999999850852512  0.8333051809163149  0.5798022192095755
 -0.0000000109975653  0.3333052104002531  0.5798022331290621
  0.4999999949447266  0.8333128134519102  0.4131526987759123
 -0.0000000089055001  0.3333129665812631  0.4131526724340273
 
  0.00000000E+00  0.00000000E+00  0.00000000E+00
  0.00000000E+00  0.00000000E+00  0.00000000E+00
  0.00000000E+00  0.00000000E+00  0.00000000E+00
  0.00000000E+00  0.00000000E+00  0.00000000E+00
  0.00000000E+00  0.00000000E+00  0.00000000E+00
  0.00000000E+00  0.00000000E+00  0.00000000E+00
