 POSCAR with strain of -0.010           
   1.00000000000000     
     4.3823567649389998   -0.0219117838250000   -0.0219117838250000
    -0.0214623892860000    4.2924778571899997   -0.0214623892860000
    -0.1000000000000000   -0.1000000000000000   19.8000000000000007
   Sn   Se
     2     2
Direct
  0.5843190764618279  0.7485505542921189  0.5694695973653640
  0.0778351501463886  0.2420521554984442  0.4305324657992673
  0.0361763814539403  0.2578371188618658  0.5677277170751038
  0.5298773659378433  0.7515601713475712  0.4322702197602721
 
  0.00000000E+00  0.00000000E+00  0.00000000E+00
  0.00000000E+00  0.00000000E+00  0.00000000E+00
  0.00000000E+00  0.00000000E+00  0.00000000E+00
  0.00000000E+00  0.00000000E+00  0.00000000E+00
