Se Sn                                   
   1.00000000000000     
     4.3777134034494658    0.0000062138715948    0.0000000000000000
     0.0000060631536394    4.2595591013983718    0.0000000000000000
     0.0000000000000000    0.0000000000000000   24.7585268899999988
   Se   Sn
     2     2
Direct
  0.0738502666723235  0.9999102955591255  0.4458123592044672
  0.5738476436768352  0.4999113962633857  0.5541923619201299
  0.1184672574108134  0.9999131590936727  0.5556387820766489
  0.6184650679475467  0.4999139342309533  0.4443622826841889
 
  0.00000000E+00  0.00000000E+00  0.00000000E+00
  0.00000000E+00  0.00000000E+00  0.00000000E+00
  0.00000000E+00  0.00000000E+00  0.00000000E+00
  0.00000000E+00  0.00000000E+00  0.00000000E+00
