B  O                                    
   1.00000000000000     
     6.5783632650923058    0.0000000000000000    0.0000000000000000
     0.0000000000000000    4.4344468463119435    0.0000000000000000
     0.0000000000000000    0.0000000000000000   23.7642002300000037
   B    O 
     4     6
Direct
  0.1703725912358011  0.3028586124705933  0.5280383944185988
  0.8362137412667837  0.3028592321288501  0.4719469917693574
  0.6703730086925880  0.8028580148260630  0.4719603871682240
  0.3362128356326575  0.8028602085970091  0.5280522414768845
  0.6853063402642536  0.5015177876053073  0.4577563148681936
  0.3212487904829349  0.5015185302929509  0.5422522752449184
  0.1853058490172738  0.0015159029384036  0.5422426713178501
  0.8212475613100353  0.0015164173753773  0.4577467696367920
  0.0033234328467409  0.4127923275203562  0.4999789137421635
  0.5033244847394988  0.9127929771969102  0.5000194197176329
 
  0.00000000E+00  0.00000000E+00  0.00000000E+00
  0.00000000E+00  0.00000000E+00  0.00000000E+00
  0.00000000E+00  0.00000000E+00  0.00000000E+00
  0.00000000E+00  0.00000000E+00  0.00000000E+00
  0.00000000E+00  0.00000000E+00  0.00000000E+00
  0.00000000E+00  0.00000000E+00  0.00000000E+00
  0.00000000E+00  0.00000000E+00  0.00000000E+00
  0.00000000E+00  0.00000000E+00  0.00000000E+00
  0.00000000E+00  0.00000000E+00  0.00000000E+00
  0.00000000E+00  0.00000000E+00  0.00000000E+00
