K-Spacing Value to Generate K-Mesh: 0.020
0
MpGrid
9  15 1
0  0  0
