S  Pb                                   
   1.00000000000000     
     4.1989960813809315    0.0000000000000000    0.0000000000000000
     0.0000000000000000    8.4907620797994827    0.0000000000000000
     0.0000000000000000    0.0000000000000000   27.8166048499999974
   S    Pb
     6     6
Direct
  0.4999999596047065  0.3895255864225460  0.6047222468034922
  0.5000000335886006  0.3895256842974542  0.3952777330902145
  0.4999999804677957  0.8895256093750235  0.3952777421287710
  0.5000000133728325  0.8895256863759992  0.6047222556803595
  0.0000000008657765  0.6516779525906310  0.4999999743575912
  0.0000000021438182  0.1516779518244268  0.4999999819991901
  0.9999999574336087  0.1652931729037988  0.6038996982899830
  0.0000000397437543  0.1652930168450507  0.3961003126381778
  0.9999999491012176  0.6652931628793158  0.3961003193763314
  0.0000000497727579  0.6652930093668530  0.6038996983656049
  0.5000000029924043  0.4048067850180950  0.5000000395157076
  0.5000000028661861  0.9048067468568499  0.4999999984735602
 
  0.00000000E+00  0.00000000E+00  0.00000000E+00
  0.00000000E+00  0.00000000E+00  0.00000000E+00
  0.00000000E+00  0.00000000E+00  0.00000000E+00
  0.00000000E+00  0.00000000E+00  0.00000000E+00
  0.00000000E+00  0.00000000E+00  0.00000000E+00
  0.00000000E+00  0.00000000E+00  0.00000000E+00
  0.00000000E+00  0.00000000E+00  0.00000000E+00
  0.00000000E+00  0.00000000E+00  0.00000000E+00
  0.00000000E+00  0.00000000E+00  0.00000000E+00
  0.00000000E+00  0.00000000E+00  0.00000000E+00
  0.00000000E+00  0.00000000E+00  0.00000000E+00
  0.00000000E+00  0.00000000E+00  0.00000000E+00
