Generated by VASPKIT code               
   1.00000000000000     
     3.3635995388000000    0.0000000000000000    0.0000000000000000
     0.0000000000000000    5.8317517528269995    0.0000000000000000
     0.0000000000000000    0.0000000000000000   20.2525882720999988
   Mo   S    Te
     2     2     2
Direct
  0.4999999916949349  0.1666140917155303  0.5070397978911529
  0.9999999877973806  0.6666140905195945  0.5070397997772886
  0.4999999806892106  0.8333638801359413  0.5797439637041393
  0.9999999890510551  0.3333638603146554  0.5797439655888184
  0.4999999992974296  0.8333550534817675  0.4132161793350591
  0.9999999914699771  0.3333550558325271  0.4132161757035320
 
  0.00000000E+00  0.00000000E+00  0.00000000E+00
  0.00000000E+00  0.00000000E+00  0.00000000E+00
  0.00000000E+00  0.00000000E+00  0.00000000E+00
  0.00000000E+00  0.00000000E+00  0.00000000E+00
  0.00000000E+00  0.00000000E+00  0.00000000E+00
  0.00000000E+00  0.00000000E+00  0.00000000E+00
