Generated by VASPKIT code               
   1.00000000000000     
     3.3635995388000000    0.0000000000000000    0.0000000000000000
     0.0000000000000000    5.8317517528269995    0.0000000000000000
     0.0000000000000000    0.0000000000000000   20.2525882720999988
   Mo   S    Te
     2     2     2
Direct
  0.4999999916949382  0.1666140917155270  0.5070397978911559
 -0.0000000122026171  0.6666140905195915  0.5070397997772863
  0.4999999806892106  0.8333638801359436  0.5797439637041398
 -0.0000000109489456  0.3333638603146576  0.5797439655888160
  0.4999999992974304  0.8333550534817646  0.4132161793350559
 -0.0000000085300216  0.3333550558325245  0.4132161757035291
 
  0.00000000E+00  0.00000000E+00  0.00000000E+00
  0.00000000E+00  0.00000000E+00  0.00000000E+00
  0.00000000E+00  0.00000000E+00  0.00000000E+00
  0.00000000E+00  0.00000000E+00  0.00000000E+00
  0.00000000E+00  0.00000000E+00  0.00000000E+00
  0.00000000E+00  0.00000000E+00  0.00000000E+00
