SnSe-0.9                                
   1.00000000000000     
     4.2924778571900175    0.0000000000000000    0.0000000000000000
     0.0000000000000000    4.3823567649391526    0.0000000000000000
     0.0000000000000000    0.0000000000000000   20.0000000000000000
   Sn   Se
     2     2
Direct
  0.7500000000000000  0.4812433581636100  0.5687431414167250
  0.2500000000000000  0.9812433581636100  0.4312568585832750
  0.2500000000000000  0.9328606428363884  0.5670738664356421
  0.7500000000000000  0.4328606148363860  0.4329261335643650
 
  0.00000000E+00  0.00000000E+00  0.00000000E+00
  0.00000000E+00  0.00000000E+00  0.00000000E+00
  0.00000000E+00  0.00000000E+00  0.00000000E+00
  0.00000000E+00  0.00000000E+00  0.00000000E+00
