 POSCAR with strain of -0.007           
   1.00000000000000     
     4.3823567649389998   -0.0164338378690000   -0.0164338378690000
    -0.0160967919640000    4.2924778571899997   -0.0160967919640000
    -0.0750000000000000   -0.0750000000000000   19.8500000000000014
   Sn   Se
     2     2
Direct
  0.5836282924749980  0.7488911210491850  0.5692766621828227
  0.0786165316996239  0.2440228712775308  0.4307215675898446
  0.0353789350049275  0.2558586227999760  0.5675694340313396
  0.5305842148204503  0.7512273848733083  0.4324323361960003
 
  0.00000000E+00  0.00000000E+00  0.00000000E+00
  0.00000000E+00  0.00000000E+00  0.00000000E+00
  0.00000000E+00  0.00000000E+00  0.00000000E+00
  0.00000000E+00  0.00000000E+00  0.00000000E+00
