S  Se Sn Pb                             
   1.00000000000000     
     4.1835908623413829    0.0000000000000000    0.0000000000000000
     0.0000000000000000    8.5208609386717562    0.0000000000000000
     0.0000000000000000    0.0000000000000000   30.0751317399999998
   S    Se   Sn   Pb
     6     4     4     6
Direct
  0.5246155402417685  0.3410991957992451  0.6949962947354393
  0.5248034117146148  0.3349515973686721  0.4989303343080849
  0.5248037441401578  0.8349515908883021  0.4989303351218695
  0.5246154672811514  0.8410991954895550  0.6949962946622250
  0.0244069332063503  0.5982622862696800  0.6029417549643128
  0.0244069399009490  0.0982622849330070  0.6029417540136706
  0.5245580870407522  0.8366003239522115  0.3047833514997507
  0.0245537776373013  0.5887865813642534  0.3988887102958287
  0.5245581899924048  0.3366003239935864  0.3047833486694103
  0.0245537981790065  0.0887865838967627  0.3988887121413711
  0.5243726928844268  0.8446200078283255  0.4002314428086962
  0.0238893172610801  0.6110341260503631  0.3044533316972036
  0.5243726553829902  0.3446200094783762  0.4002314401926554
  0.0238895163138366  0.1110341151985352  0.3044533341554185
  0.0240109533070907  0.1131509416590362  0.6963223436376751
  0.0241118662741897  0.1066506875958453  0.5018746158053276
  0.0241125994631446  0.6066506792379300  0.5018746132419309
  0.0240106462552347  0.6131509405369897  0.6963223487311154
  0.5242491412664023  0.3525259380753738  0.6013164261737245
  0.5242491436112147  0.8525259370576492  0.6013164271583449
 
  0.00000000E+00  0.00000000E+00  0.00000000E+00
  0.00000000E+00  0.00000000E+00  0.00000000E+00
  0.00000000E+00  0.00000000E+00  0.00000000E+00
  0.00000000E+00  0.00000000E+00  0.00000000E+00
  0.00000000E+00  0.00000000E+00  0.00000000E+00
  0.00000000E+00  0.00000000E+00  0.00000000E+00
  0.00000000E+00  0.00000000E+00  0.00000000E+00
  0.00000000E+00  0.00000000E+00  0.00000000E+00
  0.00000000E+00  0.00000000E+00  0.00000000E+00
  0.00000000E+00  0.00000000E+00  0.00000000E+00
  0.00000000E+00  0.00000000E+00  0.00000000E+00
  0.00000000E+00  0.00000000E+00  0.00000000E+00
  0.00000000E+00  0.00000000E+00  0.00000000E+00
  0.00000000E+00  0.00000000E+00  0.00000000E+00
  0.00000000E+00  0.00000000E+00  0.00000000E+00
  0.00000000E+00  0.00000000E+00  0.00000000E+00
  0.00000000E+00  0.00000000E+00  0.00000000E+00
  0.00000000E+00  0.00000000E+00  0.00000000E+00
  0.00000000E+00  0.00000000E+00  0.00000000E+00
  0.00000000E+00  0.00000000E+00  0.00000000E+00
