Mo Te                                   
   1.00000000000000     
     6.3940267105187152    0.0000000000000000    0.0000000000000000
     0.0000000000000000    3.4074920172550214    0.0000000000000000
     0.0000000000000000    0.0000000000000000   28.0000000000000000
   Mo   Te
     2     4
Direct
  0.0000000000000000  0.0000000000000000  0.5000000108022391
  0.5000000589999942  0.5000000000000000  0.5000000108022391
  0.6722978309359391  0.0000000000000000  0.4355640930668230
  0.1722978309359391  0.5000000000000000  0.4355640930668230
  0.6722978282924643  0.0000000000000000  0.5644359069331770
  0.1722978282924643  0.5000000000000000  0.5644359069331770
 
  0.00000000E+00  0.00000000E+00  0.00000000E+00
  0.00000000E+00  0.00000000E+00  0.00000000E+00
  0.00000000E+00  0.00000000E+00  0.00000000E+00
  0.00000000E+00  0.00000000E+00  0.00000000E+00
  0.00000000E+00  0.00000000E+00  0.00000000E+00
  0.00000000E+00  0.00000000E+00  0.00000000E+00
