Na Cl                                   
   1.00000000000000     
     6.5000000000000000    0.0000000000000000    0.0000000000000000
     0.0000000000000000    6.5000000000000000    0.0000000000000000
     0.0000000000000000    0.0000000000000000    7.7000000000000002
   Na   Cl
     1     1
Direct
  0.0000000000000000  0.0000000000000000  0.0000000000000000
  0.0000000000000000  0.0000000000000000  0.3065974025974043
 
  0.00000000E+00  0.00000000E+00  0.00000000E+00
  0.00000000E+00  0.00000000E+00  0.00000000E+00
