INCAR created by Atomic Simulation Environment
 GGA = PE
 PREC = Accurate
 LREAL = .FALSE.
