Na Cl 
 1.0000000000000000
     6.5000000000000000    0.0000000000000000    0.0000000000000000
     0.0000000000000000    6.5000000000000000    0.0000000000000000
     0.0000000000000000    0.0000000000000000    7.7000000000000002
 Na  Cl 
   1   1
Cartesian
  0.0000000000000000  0.0000000000000000  0.0000000000000000
  0.0000000000000000  0.0000000000000000  2.3607999999999998
