 SnSe-Monolayer                         
   1.00000000000000     
     4.3735920514092745    0.0000000000000000    0.0000000000000000
     0.0000000000000000    4.2924778571900175    0.0000000000000000
     0.0000000000000000    0.0000000000000000   20.0000000000000000
   Sn   Se
     2     2
Direct
  0.5802893405681147  0.7500000000000000  0.5687654980360293
  0.0802893405681147  0.2500000000000000  0.4312345019639707
  0.0338146604318865  0.2500000000000000  0.5670772428089776
  0.5338146324318842  0.7500000000000000  0.4329227571910295
 
  0.00000000E+00  0.00000000E+00  0.00000000E+00
  0.00000000E+00  0.00000000E+00  0.00000000E+00
  0.00000000E+00  0.00000000E+00  0.00000000E+00
  0.00000000E+00  0.00000000E+00  0.00000000E+00
