Mo Te 
 1.0000000000000000
     6.3940267105187152    0.0000000000000000    0.0000000000000000
     0.0000000000000000    3.4074920172550214    0.0000000000000000
     0.0000000000000000    0.0000000000000000   28.0000000000000000
   2   4
Cartesian
 -0.0002685135262014 -0.0000000011349701 13.9343133049638990
  2.5474036677762886  1.7037460072975041 14.0656697984639081
  4.0198678422677476 -0.0000000055005965 12.4312060921752181
  0.7812366782781114  1.7037460078020390 11.9978108096654559
  4.6728866229321468 -1.2778095059116044 15.5687881324515534
  1.5174475678352739  0.4259365103888932 16.0022124459458013
