Mo Te                                   
   1.00000000000000     
     6.3940267105187152    0.0000000000000000    0.0000000000000000
     0.0000000000000000    3.4074920172550214    0.0000000000000000
     0.0000000000000000    0.0000000000000000   28.0000000000000000
   Mo   Te
     2     4
Direct
  1.0071185544781394  1.0759046460183170  0.4968937051993647
  0.3716624854288845  0.5750439970105528  0.5031087969303131
  0.6212213477480558  1.0760658431693841  0.4467932615202926
  0.1123016402529234  0.5762944148654026  0.4261439146985789
  0.7576591546420079  0.5739053827734812  0.5532098275048247
  0.2667082740122345  0.0742786552115817  0.5738505151958082
 
             NaN             NaN             NaN
             NaN             NaN             NaN
             NaN             NaN             NaN
             NaN             NaN             NaN
             NaN             NaN             NaN
             NaN             NaN             NaN
