Mo Te 
 1.0000000000000000
     6.3940267105187152    0.0000000000000000    0.0000000000000000
     0.0000000000000000    3.4074920172550214    0.0000000000000000
     0.0000000000000000    0.0000000000000000   28.0000000000000000
   2   4
Cartesian
 -0.0002983483624460 -0.0000000012610779 13.9270147496862542
  2.4752247716951099  1.7037460071497255 14.0729664091307090
  3.9888875704721429 -0.0000000061117739 12.4573629239867927
  0.7456322055124758  1.7037460077103199 11.9758126100870577
  4.7144639953106360 -1.4197883399017828 15.5426306589318415
  1.5636443068984840  0.2839576772512691 16.0242132294810062
