SnSe-0.0
 1.0000000000000000
     4.2924778571900175    0.0000000000000000    0.0000000000000000
     0.0000000000000000    4.3823567649391526    0.0000000000000000
     0.0000000000000000    0.0000000000000000   20.0000000000000000
 Sn  Se 
   2   2
Direct
  0.7500000000000000  0.5812433581636116  0.5687431414167269
  0.2500000000000000  0.0812433581636115  0.4312568585832732
  0.2500000000000000  0.0328606428363896  0.5670738664356403
  0.7500000000000000  0.5328606148363875  0.4329261335643668
