Generated by VASPKIT code               
   1.00000000000000     
     3.3635995388000000    0.0000000000000000    0.0000000000000000
     0.0000000000000000    5.8259258269999998    0.0000000000000000
     0.0000000000000000    0.0000000000000000   20.2525882720999988
   Mo   S    Te
     2     2     2
Direct
  0.4999999699999975  0.1666665380000012  0.5070396659999972
  0.0000000000000000  0.6666665079999987  0.5070396659999972
  0.4999999699999975  0.8333332540000029  0.5797495249999969
  0.0000000000000000  0.3333332240000004  0.5797495249999969
  0.5000000000000000  0.8333332540000029  0.4132107499999975
  0.0000000000000000  0.3333332540000029  0.4132107499999975
 
  0.00000000E+00  0.00000000E+00  0.00000000E+00
  0.00000000E+00  0.00000000E+00  0.00000000E+00
  0.00000000E+00  0.00000000E+00  0.00000000E+00
  0.00000000E+00  0.00000000E+00  0.00000000E+00
  0.00000000E+00  0.00000000E+00  0.00000000E+00
  0.00000000E+00  0.00000000E+00  0.00000000E+00
