# System Setting
SYSTEM  = XYZ
PREC    = Accurate   # Accurate works best
GGA     = PE         # PE=PBE, 91=Perdew-Wang-91
ENCUT   = 520

# Type of Calculation
NSW     = 100          # Maximum Number of ionic relaxation steps to perform For SCF set it to 0
ISIF    = 4          # Which type of run to perform 0=MD, 2=Atomic Relax, 3=Atomic and Unit cell relax
IBRION  = 2          # Determines how ions are moved -1=for scf only no update,0=MD, 2=conjugate gradientg algorithm
ISPIN   = 1          # 1=spin unpol, 2=spin pol
# IVDW    = 11         # Grimme D3 Corrections
ISYM    = 0          # Turn off the symm of chg den


# Continue or Fresh
ISTART  = 0          # 0=Scratch, 1=Continuation Job only read wavecar file 
ICHARG  = 2          # 2=ch den from sup pos of atoms , 0=ch den from wave function 1=read CHGCAR file

# Stopping Criteria
EDIFF   = 1.0E-7     # Energy Convergence in electronic steps
EDIFFG  = -1.0E-2    # Force conv in ionic steps, -ve for force +ve for energy diffrence

# Smearing
ISMEAR  = 0          # 0=Gaussina Smearing
SIGMA   = 0.05        # Smearing width

# Dipole Correction
LDIPOL  = True        # Dipole Correction On
IDIPOL  = 3           # Direction of Dipole
DIPOL   = 0.5 0.5 0.5 # Center of Dipole 


# Parallelizaiton
# NBANDS = 32
NCORE = 16
LWAVE = False
LCHARG = False
# KPAR = 3
