Generated by VASPKIT code               
1.0
        3.3635995388         0.0000000000         0.0000000000
        0.0000000000         5.8259258270         0.0000000000
        0.0000000000         0.0000000000        20.2525882721
   Mo    S   Te
    2    2    2
Direct
     0.499999970         0.166666538         0.507039666
     0.000000000         0.666666508         0.507039666
     0.499999970         0.833333254         0.579749525
     0.000000000         0.333333224         0.579749525
     0.500000000         0.833333254         0.413210750
     0.000000000         0.333333254         0.413210750
