 POSCAR with strain of 0.005            
   1.00000000000000     
     4.3823567649389998    0.0000000000000000    0.0000000000000000
     0.0000000000000000    4.3139402464760002    0.0000000000000000
     0.0000000000000000    0.0000000000000000   20.0000000000000000
   Sn   Se
     2     2
Direct
  0.5819964637310783  0.7500000027230790  0.5686384729066004
  0.0819965169888954  0.2500000023858842  0.4313616605579004
  0.0321074940144866  0.2500000024192921  0.5670719321360033
  0.5321074992655398  0.7499999924717449  0.4329279343995031
 
  0.00000000E+00  0.00000000E+00  0.00000000E+00
  0.00000000E+00  0.00000000E+00  0.00000000E+00
  0.00000000E+00  0.00000000E+00  0.00000000E+00
  0.00000000E+00  0.00000000E+00  0.00000000E+00
