Si_2x2x2
1.0
        5.4687275887         0.0000000000         0.0000000000
        0.0000000000         5.4687275887         0.0000000000
        0.0000000000         0.0000000000         5.4687275887
   Si
    8
Direct
     0.500000000         0.500000000         0.000000000
     0.500000000         0.000000000         0.500000000
     0.000000000         0.500000000         0.500000000
     0.000000000         0.000000000         0.000000000
     0.250000000         0.250000000         0.750000000
     0.250000000         0.750000000         0.250000000
     0.750000000         0.250000000         0.250000000
     0.750000000         0.750000000         0.750000000