&inputpp 
   outdir="./wfc-out"
   seedname = "INCAR"
   prefix = 'bi2se3'
   spin_component = 'none'

   write_mmn = .true.
   write_amn = .true.
   write_unk = .true.
   write_spn = .true.
   write_eig = .true. ! added 

   scdm_entanglement = 'erfc' 
   scdm_proj = .true. 
   scdm_mu = 11.3550 
   scdm_sigma = 1.2465
/
