&projwfc
    prefix = 'pb',
    outdir = 'wfc-out/'
    lsym = .FALSE.,
    filproj = 'lead-proj'
 /
