 SnSe-Monolayer                         
   1.00000000000000     
     4.3472979108196395    0.0000000000000000    0.0000000000000000
     0.0000000000000000    4.2924778571900175    0.0000000000000000
     0.0000000000000000    0.0000000000000000   20.0000000000000000
   Sn   Se
     2     2
Direct
  0.5771148400675339  0.7500000000000000  0.5686549138128810
  0.0771148400675338  0.2500000000000000  0.4313450861871189
  0.0369891609324674  0.2500000000000000  0.5672941714094973
  0.5369891329324650  0.7500000000000000  0.4327058285905098
 
  0.00000000E+00  0.00000000E+00  0.00000000E+00
  0.00000000E+00  0.00000000E+00  0.00000000E+00
  0.00000000E+00  0.00000000E+00  0.00000000E+00
  0.00000000E+00  0.00000000E+00  0.00000000E+00
