Se Sn                                   
   1.00000000000000     
     4.3952242570632638    0.0000062138715948    0.0000000000000000
     0.0000060631536394    4.2939103844741648    0.0000000000000000
     0.0000000000000000    0.0000000000000000   24.7585268899999988
   Se   Sn
     2     2
Direct
  0.0707540136255531  0.9999117143893059  0.4458904018818615
  0.5707684304434082  0.4999091198087910  0.5541129471945752
  0.1215514915552518  0.9999144410833836  0.5555383270270013
  0.6215563000832987  0.4999135098656637  0.4444641097819968
 
  0.00000000E+00  0.00000000E+00  0.00000000E+00
  0.00000000E+00  0.00000000E+00  0.00000000E+00
  0.00000000E+00  0.00000000E+00  0.00000000E+00
  0.00000000E+00  0.00000000E+00  0.00000000E+00
