Rotated POSCAR by SURFACE card in wt.in by WannierTools
1.0
   -2.069000   -3.583614    0.000000
    2.069000   -3.583614    0.000000
    0.000000    2.389075    9.546667
Bi    Se    
     2     3
Direct
    0.399000    0.399000    0.697000       Bi
    0.601000    0.601000    0.303000       Bi
    0.000000    0.000000    0.500000       Se
    0.206000    0.206000    0.118000       Se
    0.794000    0.794000    0.882000       Se
