B  O                                    
   1.00000000000000     
     6.5783632650923058    0.0000000000000000    0.0000000000000000
     0.0000000000000000    4.4344468463119435    0.0000000000000000
     0.0000000000000000    0.0000000000000000   23.7642002300000037
   B    O 
     4     6
Direct
  0.1703725912358038  0.3028586124705939  0.5280383944186013
  0.8362137412667821  0.3028592321288528  0.4719469917693573
  0.6703730086925859  0.8028580148260644  0.4719603871682239
  0.3362128356326579  0.8028602085970107  0.5280522414768853
  0.6853063402642547  0.5015177876053087  0.4577563148681918
  0.3212487904829331  0.5015185302929481  0.5422522752449197
  0.1853058490172756  0.0015159029384009  0.5422426713178510
  0.8212475613100381  0.0015164173753774  0.4577467696367918
  0.0033234328467415  0.4127923275203571  0.4999789137421615
  0.5033244847395011  0.9127929771969079  0.5000194197176313
 
  0.00000000E+00  0.00000000E+00  0.00000000E+00
  0.00000000E+00  0.00000000E+00  0.00000000E+00
  0.00000000E+00  0.00000000E+00  0.00000000E+00
  0.00000000E+00  0.00000000E+00  0.00000000E+00
  0.00000000E+00  0.00000000E+00  0.00000000E+00
  0.00000000E+00  0.00000000E+00  0.00000000E+00
  0.00000000E+00  0.00000000E+00  0.00000000E+00
  0.00000000E+00  0.00000000E+00  0.00000000E+00
  0.00000000E+00  0.00000000E+00  0.00000000E+00
  0.00000000E+00  0.00000000E+00  0.00000000E+00
