&CONTROL
    calculation   =  "scf"
    nstep         =  0
    pseudo_dir    =  "./"
    outdir        =  "./wfc-out"  
    disk_io       =  "None"
    max_seconds   =  10
/

&SYSTEM
    ecutrho     =  500
    ecutwfc     =  60
    ibrav       =  0
    nat         =  79
    ntyp        =  2
    occupations =  smearing
    smearing    = "gaussian"
    degauss     =  0.01
    nosym       = .TRUE.    ! Default is .FALSE.
    nosym_evc   = .TRUE.    ! Default is .FALSE.
    noinv       = .TRUE.    ! Default is .FALSE.
/

&ELECTRONS
    conv_thr         =  1.0D-10
    electron_maxstep =  -1
    mixing_beta      =  7.00000e-01
    startingpot      = "file"
    startingwfc      =  "random"
/

K_POINTS (automatic)
 5 5 1 0 0 0


ATOMIC_SPECIES
B      10.81  B_pbe_v1.01.uspp.F.UPF
N      14.00674  N.oncvpsp.upf

CELL_PARAMETERS angstrom
17.3188917300 0.000000000 0.000000000
   0.000000000  12.501067420   0.000000000
   0.000000000   0.000000000  20.000000000

ATOMIC_POSITIONS (crystal)
B             0.0415870417        0.1000677961        0.5000000000
B             0.0417900324        0.3000212385        0.5000000000
B             0.0418846531        0.5000000000        0.5000000000
B             0.0417900324        0.6999787615        0.5000000000
B             0.0415870417        0.8999321809        0.5000000000
B             0.2913920107        0.0998354274        0.5000000000
B             0.2919618817        0.2998315028        0.5000000000
B             0.2920205496        0.5000000000        0.5000000000
B             0.2919618817        0.7001684972        0.5000000000
B             0.2913920107        0.9001645496        0.5000000000
B             0.5413201396        0.1000407891        0.5000000000
B             0.5403843299        0.3010816847        0.5000000000
B             0.5403843299        0.6989183153        0.5000000000
B             0.5413201396        0.8999591879        0.5000000000
B             0.7915691436        0.1000497212        0.5000000000
B             0.7916793867        0.3004284446        0.5000000000
B             0.7923592627        0.5000000000        0.5000000000
B             0.7916793867        0.6995715554        0.5000000000
B             0.7915691436        0.8999502558        0.5000000000
B             0.1664500048        0.0000000000        0.5000000000
B             0.1667234763        0.2000618040        0.5000000000
B             0.1668581258        0.4000545765        0.5000000000
B             0.1668581258        0.5999454535        0.5000000000
B             0.1667234763        0.7999382110        0.5000000000
B             0.4163840418        0.0000000000        0.5000000000
B             0.4162603253        0.1992247680        0.5000000000
B             0.4182389516        0.3991350047        0.5000000000
B             0.4182389516        0.6008650253        0.5000000000
B             0.4162603253        0.8007752470        0.5000000000
B             0.6666180403        0.0000000000        0.5000000000
B             0.6665457579        0.2002173443        0.5000000000
B             0.6664588597        0.4021464513        0.5000000000
B             0.6664588597        0.5978535787        0.5000000000
B             0.6665457579        0.7997826707        0.5000000000
B             0.9165777786        0.0000000000        0.5000000000
B             0.9166007315        0.2001098427        0.5000000000
B             0.9169650335        0.3999832387        0.5000000000
B             0.9169650335        0.6000167913        0.5000000000
B             0.9166007315        0.7998901723        0.5000000000
N             0.2081343541        0.0999515978        0.5000000000
N             0.2085138407        0.3001189107        0.5000000000
N             0.2085188896        0.5000000000        0.5000000000
N             0.2085138407        0.6998810893        0.5000000000
N             0.2081343541        0.9000483792        0.5000000000
N             0.4581325311        0.0996383441        0.5000000000
N             0.4577152820        0.2984831432        0.5000000000
N             0.4538195979        0.5000000000        0.5000000000
N             0.4577152820        0.7015168568        0.5000000000
N             0.4581325311        0.9003616329        0.5000000000
N             0.7082736937        0.1000086248        0.5000000000
N             0.7082305990        0.2999083522        0.5000000000
N             0.7095184180        0.5000000000        0.5000000000
N             0.7082305990        0.7000916478        0.5000000000
N             0.7082736937        0.8999913522        0.5000000000
N             0.9582252888        0.1000533108        0.5000000000
N             0.9584623880        0.2999525537        0.5000000000
N             0.9585807813        0.5000000000        0.5000000000
N             0.9584623880        0.7000474463        0.5000000000
N             0.9582252888        0.8999466662        0.5000000000
N             0.0831553266        0.0000000000        0.5000000000
N             0.0833800398        0.2000310323        0.5000000000
N             0.0835020656        0.3999953289        0.5000000000
N             0.0835020656        0.6000047011        0.5000000000
N             0.0833800398        0.7999689827        0.5000000000
N             0.3330887536        0.0000000000        0.5000000000
N             0.3330593922        0.1996396318        0.5000000000
N             0.3334570643        0.4001548918        0.5000000000
N             0.3334570643        0.5998451382        0.5000000000
N             0.3330593922        0.8003603832        0.5000000000
N             0.5833159763        0.0000000000        0.5000000000
N             0.5834093186        0.1998580327        0.5000000000
N             0.5856682703        0.3940080837        0.5000000000
N             0.5856682703        0.6059919463        0.5000000000
N             0.5834093186        0.8001419823        0.5000000000
N             0.8332459664        0.0000000000        0.5000000000
N             0.8331776307        0.2001059164        0.5000000000
N             0.8337205645        0.3999444625        0.5000000000
N             0.8337205645        0.6000555675        0.5000000000
N             0.8331776307        0.7998940986        0.5000000000
