S  Pb                                   
   1.00000000000000     
     4.1655379452743109    0.0000000000000000    0.0000000000000000
     0.0000000000000000    8.4907620797994827    0.0000000000000000
     0.0000000000000000    0.0000000000000000   27.8166048499999974
   S    Pb
     6     6
Direct
  0.5000000045907953  0.3907576588575736  0.6047816645907389
  0.4999999914860069  0.3907576196828799  0.3952183525737496
  0.4999999705062024  0.8907574889162717  0.3952183512322520
  0.5000000290759701  0.8907575281538698  0.6047816657164091
  0.9999999817069352  0.6516983121151654  0.4999999856614750
  0.9999999834340159  0.1516983559582812  0.4999999859062214
  0.9999999578309371  0.1642079797320264  0.6040521341124006
  0.0000000227506831  0.1642079622920036  0.3959478557815643
  0.9999999858439708  0.6642081016583816  0.3959478543569475
  0.0000000063442513  0.6642081215884943  0.6040521357000372
  0.5000000286858679  0.4044925900959129  0.5000000073700193
  0.5000000296978158  0.9044926457051830  0.5000000077171620
 
  0.00000000E+00  0.00000000E+00  0.00000000E+00
  0.00000000E+00  0.00000000E+00  0.00000000E+00
  0.00000000E+00  0.00000000E+00  0.00000000E+00
  0.00000000E+00  0.00000000E+00  0.00000000E+00
  0.00000000E+00  0.00000000E+00  0.00000000E+00
  0.00000000E+00  0.00000000E+00  0.00000000E+00
  0.00000000E+00  0.00000000E+00  0.00000000E+00
  0.00000000E+00  0.00000000E+00  0.00000000E+00
  0.00000000E+00  0.00000000E+00  0.00000000E+00
  0.00000000E+00  0.00000000E+00  0.00000000E+00
  0.00000000E+00  0.00000000E+00  0.00000000E+00
  0.00000000E+00  0.00000000E+00  0.00000000E+00
