S  Pb                                   
   1.00000000000000     
     4.1655379452743109    0.0000000000000000    0.0000000000000000
     0.0000000000000000    8.4907620797994827    0.0000000000000000
     0.0000000000000000    0.0000000000000000   27.8166048499999974
   S    Pb
     6     6
Direct
  0.5000000045907967  0.3907576588575767  0.6047816645907406
  0.4999999914860070  0.3907576196828794  0.3952183525737495
  0.4999999705062012  0.8907574889162712  0.3952183512322516
  0.5000000290759705  0.8907575281538721  0.6047816657164070
 -0.0000000182930648  0.6516983121151638  0.4999999856614766
 -0.0000000165659853  0.1516983559582830  0.4999999859062226
  0.9999999578309386  0.1642079797320294  0.6040521341124011
  0.0000000227506841  0.1642079622920027  0.3959478557815665
  0.9999999858439739  0.6642081016583804  0.3959478543569480
  0.0000000063442536  0.6642081215884943  0.6040521357000369
  0.5000000286858658  0.4044925900959105  0.5000000073700190
  0.5000000296978174  0.9044926457051795  0.5000000077171644
 
  0.00000000E+00  0.00000000E+00  0.00000000E+00
  0.00000000E+00  0.00000000E+00  0.00000000E+00
  0.00000000E+00  0.00000000E+00  0.00000000E+00
  0.00000000E+00  0.00000000E+00  0.00000000E+00
  0.00000000E+00  0.00000000E+00  0.00000000E+00
  0.00000000E+00  0.00000000E+00  0.00000000E+00
  0.00000000E+00  0.00000000E+00  0.00000000E+00
  0.00000000E+00  0.00000000E+00  0.00000000E+00
  0.00000000E+00  0.00000000E+00  0.00000000E+00
  0.00000000E+00  0.00000000E+00  0.00000000E+00
  0.00000000E+00  0.00000000E+00  0.00000000E+00
  0.00000000E+00  0.00000000E+00  0.00000000E+00
