SnSe-0.3                                
   1.00000000000000     
     4.2924778571900175    0.0000000000000000    0.0000000000000000
     0.0000000000000000    4.3823567649391526    0.0000000000000000
     0.0000000000000000    0.0000000000000000   20.0000000000000000
   Sn   Se
     2     2
Direct
  0.7500000000000000  0.8812433581636085  0.5687431414167250
  0.2500000000000000  0.3812433581636085  0.4312568585832750
  0.2500000000000000  0.3328606428363869  0.5670738664356421
  0.7500000000000000  0.8328606148363846  0.4329261335643650
 
  0.00000000E+00  0.00000000E+00  0.00000000E+00
  0.00000000E+00  0.00000000E+00  0.00000000E+00
  0.00000000E+00  0.00000000E+00  0.00000000E+00
  0.00000000E+00  0.00000000E+00  0.00000000E+00
