generated by phonopy                    
   1.00000000000000     
     1.5911431666091973   -2.7559408066831548    0.0000000000000000
     1.5911431666091973    2.7559408066831548    0.0000000000000000
     0.0000000000000000    0.0000000000000000   14.4913947462910357
   Mo   S 
     2     4
Direct
  0.3333333333333357  0.6666666666666643  0.2500000000000000
  0.6666666666666643  0.3333333333333357  0.7500000000000000
  0.6659926620350660  0.3333333333333357  0.3570278644660831
  0.3333333333333357  0.6666666666666643  0.8577018690976814
  0.6666666666666643  0.3333333333333357  0.1422981309023186
  0.3333333333333357  0.6666666666666643  0.6422981309023186
 
  0.00000000E+00  0.00000000E+00  0.00000000E+00
  0.00000000E+00  0.00000000E+00  0.00000000E+00
  0.00000000E+00  0.00000000E+00  0.00000000E+00
  0.00000000E+00  0.00000000E+00  0.00000000E+00
  0.00000000E+00  0.00000000E+00  0.00000000E+00
  0.00000000E+00  0.00000000E+00  0.00000000E+00
