&inputpp 
   outdir="./wfc-out"
   prefix = 'di'
   seedname = "INCAR"
   spin_component = 'none'
   write_mmn = .true.
   write_amn = .true.
   write_unk = .true.
/
