Mo Te 
 1.0000000000000000
     6.3940267105187152    0.0000000000000000    0.0000000000000000
     0.0000000000000000    3.4074920172550214    0.0000000000000000
     0.0000000000000000    0.0000000000000000   28.0000000000000000
   2   4
Cartesian
 -0.0003580180349352 -0.0000000015132934 13.9124176391309664
  2.3308669795327526  1.7037460068541685 14.0875596304643125
  3.9269270268809335 -0.0000000073341287 12.5096765876099436
  0.6744232599812044  1.7037460075268818 11.9318162109302595
  4.7976187400676151  1.7037460093728822 15.4903157118924195
  1.6560377850249040  0.0000000109760208 16.0682147965514162
