Mo Te                                   
   1.00000000000000     
     6.3940267105187152    0.0000000000000000    0.0000000000000000
     0.0000000000000000    3.4074920172550214    0.0000000000000000
     0.0000000000000000    0.0000000000000000   28.0000000000000000
   Mo   Te
     2     4
Direct
 -0.0000559925773138 -0.0000000004441077  0.4968720585403917
  0.3645381987063456  0.4999999994795756  0.5031271296594397
  0.6141555555939118 -0.0000000021523539  0.4467741638432123
  0.1054770789230081  0.4999999996769974  0.4261362932475093
  0.7503282293417896  0.5000000002187449  0.5532255611390150
  0.2589976332598958  0.0000000032211435  0.5738648141625505
 
  0.00000000E+00  0.00000000E+00  0.00000000E+00
  0.00000000E+00  0.00000000E+00  0.00000000E+00
  0.00000000E+00  0.00000000E+00  0.00000000E+00
  0.00000000E+00  0.00000000E+00  0.00000000E+00
  0.00000000E+00  0.00000000E+00  0.00000000E+00
  0.00000000E+00  0.00000000E+00  0.00000000E+00
