 POSCAR with strain of 0.007            
   1.00000000000000     
     4.3823567649389998    0.0000000000000000    0.0000000000000000
     0.0000000000000000    4.3246714411190004    0.0000000000000000
     0.0000000000000000    0.0000000000000000   20.0000000000000000
   Sn   Se
     2     2
Direct
  0.5824038385698926  0.7500000256933869  0.5685896386542725
  0.0824038297591408  0.2500000175973275  0.4314103733395377
  0.0317001562370439  0.2499999810839707  0.5670714696254943
  0.5317001494339227  0.7499999756253148  0.4329285183807028
 
  0.00000000E+00  0.00000000E+00  0.00000000E+00
  0.00000000E+00  0.00000000E+00  0.00000000E+00
  0.00000000E+00  0.00000000E+00  0.00000000E+00
  0.00000000E+00  0.00000000E+00  0.00000000E+00
