 POSCAR with strain of -0.007           
   1.00000000000000     
     4.3494890892019997    0.0000000000000000    0.0000000000000000
     0.0000000000000000    4.2924778571899997    0.0000000000000000
     0.0000000000000000    0.0000000000000000   20.0000000000000000
   Sn   Se
     2     2
Direct
  0.5773556423980465  0.7500000023194822  0.5686545785122921
  0.0773556396688565  0.2500000021551324  0.4313454951719753
  0.0367483544821331  0.2499999961421898  0.5672857671247350
  0.5367483374509642  0.7499999993831958  0.4327141591910048
 
  0.00000000E+00  0.00000000E+00  0.00000000E+00
  0.00000000E+00  0.00000000E+00  0.00000000E+00
  0.00000000E+00  0.00000000E+00  0.00000000E+00
  0.00000000E+00  0.00000000E+00  0.00000000E+00
