Si_2x2x2                                
   1.00000000000000     
    10.9374551773000004    0.0000000000000000    0.0000000000000000
     0.0000000000000000   10.9374551773000004    0.0000000000000000
     0.0000000000000000    0.0000000000000000   10.9374551773000004
   Si
    64
Direct
  0.2459546652600048  0.2815711970008581  0.9817027848841162
  0.2117564485478694  0.2170666795086330  0.4353085548629698
  0.2189831077501412  0.6807032091170189  0.8760603244550504
  0.2277038820880322  0.7110322553071575  0.4871509278753803
  0.8021475999992612  0.2559165084749964  0.0494294656870134
  0.7688223686292260  0.2543844110988379  0.4703905599799501
  0.6764134823223155  0.8092834470210739  0.0260104606304120
  0.7758338220911325  0.7598909606751146  0.4671293093681818
  0.4653427767940412 -0.0494725789707722  0.2599460288922967
  0.2157952047018859  0.9450435973128508  0.7724846230907858
  0.2353290434889561  0.5306439767974255  0.2706628595416883
  0.2200730379183510  0.4449760980644786  0.6672486323309557
  0.6184580226250116  0.8988265059478545  0.5540667432866634
  0.8610921331221015  0.1282532301767865  0.9015298560826417
  0.7563775134652667  0.5565489976662326  0.2066214442536452
  0.7469140103648156  0.4983237649814451  0.7516715386534640
  0.0047523662634392  0.2822202197040813  0.2087804449042376
  0.9540498643216934  0.1891112788895995  0.7154048405494808
  0.1207836895849142  0.7895829396395336  0.0977524764231209
  0.9181106135642297  0.8052788724489279  0.7213224487864025
  0.4246467255179116  0.1674870369868408  0.2469520138662200
  0.5058271511512658  0.2040313502985674  0.7783301032674652
  0.4096436040843097  0.7106192306130870  0.2872967424410713
  0.4123041879559725  0.6795425872945347  0.8003804198180732
  0.0027031028748567  0.0382695648829125  0.1066082570271846
  0.0399720941056043  0.0394831428707014  0.5476793903597027
  0.9651263260247513  0.5333801521523593  0.9061821467763327
  1.0303539149560852  0.5193052411954278  0.4983980498890327
  0.5176192108338878  0.9827256583330860  0.0270155164877562
  0.5558608415711475  0.0343728428294042  0.6837453881435681
  0.4644771823846686  0.4445841666011865  1.0056607296217901
  0.4742404117977149  0.4743368449871998  0.4930320681958320
  0.0734372423517822  0.1059159969021604  0.3080460041169086
  0.1092542808812699  0.1292257129307022  0.8987118351317409
  0.0946660574246979  0.6756987330043982  0.3305010976323946
  0.0766158917992997  0.6127423633435211  0.7500012840410702
  0.5776318306762361  0.1016369227658935  0.4568820556219654
  0.6371252336992878  0.1661671854684812  0.9521732848521555
  0.6008698703439572  0.6353138806290369  0.3518566751454889
  0.6401206335113548  0.6516978709934711  0.8679325774163292
  0.1189210210137643  0.4273257008613859  0.0783422825835465
  0.0695227551903762  0.3262592831388769  0.5621945528821688
  0.3530898785533341  0.8333456318628856  0.0083227060486772
  0.0950849193527645  0.8449608233535417  0.6306025265569933
  0.6568994341486709  0.4517631126300502  0.0566002276604539
  0.6352517452013505  0.3686696243220731  0.6362509355719487
  0.6888092109396232  0.8274445321168704  0.2584174805805576
  0.7374494460935201  0.9851991602349865  0.7782008361831307
  0.4652916144968326  0.2531522623155989  0.0641730934175459
  0.3438323991405625  0.0018510549866976  0.5735127455573895
  0.3293344630374064  0.5804486780786083  0.0715886947256921
  0.3565769978286061  0.5967860909208819  0.5915340617731739
  0.8500808776505945  0.1265781084499955  0.2188746535434508
  0.8247098786848052  0.0567375319631762  0.5630483834385338
  0.8972586933719580  0.6725474884027083  0.0478855949337631
  0.8626102723475313  0.5954600878529008  0.6058571800210055
  0.3516752113066013  0.3795960604707430  0.3512669914339292
  0.2872373551309068  0.4307808817661951  0.8521299251515760
  0.3999330203375217  0.8433130068027261  0.4477674756474930
  0.4299488562218996  0.8973817400275184  0.7976570708705348
  0.9052988643660973  0.4401614745095284  0.3491398804681922
  0.8760767703079445  0.3680539203452335  0.8606745351150122
  0.9274518306313038  0.9021160454388676  0.4174275656519382
  0.8804650419972743  0.8943456311828428  0.9604706412927538
 
 -0.36277413E-02  0.12509405E-01  0.56869117E-02
  0.23199064E-02 -0.47804917E-02 -0.40372322E-02
  0.16765329E-01  0.14380516E-02 -0.77887382E-02
  0.45399818E-02  0.63913442E-02 -0.98244103E-02
  0.17792285E-01 -0.38064210E-02 -0.73167290E-03
  0.23237588E-03  0.24886710E-02 -0.13823003E-01
  0.10113227E-01 -0.17348806E-04  0.96931717E-03
 -0.83389458E-03  0.51292147E-02  0.42776266E-02
  0.12885760E-01 -0.61638435E-02 -0.66384707E-02
 -0.44410801E-02 -0.65769802E-02  0.65151495E-02
 -0.12455998E-02 -0.49085369E-02 -0.44730140E-02
  0.25088982E-02  0.27529706E-02  0.21945297E-02
 -0.11876427E-01 -0.16541483E-01  0.10716841E-01
  0.15962190E-01  0.11823083E-02  0.15770505E-01
  0.17677231E-02  0.30340335E-02 -0.90528124E-02
  0.29896558E-02  0.30323671E-02  0.10004701E-02
 -0.60903339E-02 -0.62879280E-03  0.12017739E-02
  0.37136504E-02 -0.25894337E-02  0.41240236E-03
  0.54114080E-02  0.40635623E-02 -0.51266936E-02
  0.80025226E-02 -0.44561860E-02 -0.46044760E-02
 -0.41626902E-03 -0.13047283E-01  0.43158377E-02
  0.48297870E-02  0.89724804E-02  0.77347527E-02
 -0.11080255E-01  0.47291977E-02  0.19946892E-02
  0.65750627E-03  0.77757300E-02  0.13319884E-01
 -0.40901613E-02 -0.97733216E-02 -0.37512434E-02
  0.62584609E-02 -0.32351581E-02  0.68465682E-02
  0.46436046E-02  0.17879112E-02  0.37040629E-02
  0.57430911E-02  0.22470924E-02 -0.41873272E-02
 -0.25360031E-02  0.19121564E-01 -0.50947585E-02
 -0.97271652E-02 -0.75791146E-02  0.75444438E-02
 -0.85889825E-02  0.17169847E-01  0.91341534E-03
  0.32375755E-02  0.42929753E-03  0.44313613E-02
 -0.68524986E-04 -0.43769784E-02  0.51901158E-03
  0.93561002E-03  0.34666582E-02  0.61778477E-02
  0.38063454E-02  0.73963050E-02 -0.36508089E-02
 -0.93125976E-02 -0.60075556E-02  0.60150979E-02
  0.57196408E-02 -0.77140080E-02  0.32142702E-02
 -0.85207229E-02  0.66094768E-03  0.11570237E-01
 -0.40672868E-02 -0.14326002E-02 -0.32401244E-02
 -0.12886779E-02  0.46524228E-02 -0.10129489E-02
  0.20587698E-02  0.49321978E-02 -0.12523717E-02
 -0.35448446E-02 -0.55151278E-02  0.18450762E-02
  0.65994148E-02 -0.54465676E-02 -0.21353529E-02
 -0.31351947E-02  0.22719824E-04 -0.88604478E-02
 -0.10115079E-01  0.83039019E-02 -0.29239533E-02
 -0.10075113E-01  0.19878600E-02  0.13112516E-03
  0.11434457E-01 -0.12386843E-01 -0.46585658E-02
 -0.96184758E-03 -0.14945289E-02  0.73735001E-02
  0.60012691E-03 -0.42612391E-02 -0.35370304E-03
 -0.29427923E-02  0.76505046E-02 -0.16883678E-04
 -0.26374263E-02 -0.10470631E-01 -0.66702771E-03
  0.26493443E-02 -0.32629533E-02  0.56914965E-02
 -0.82953708E-02 -0.51743476E-02  0.89603617E-02
  0.20570371E-02 -0.74572402E-02 -0.13807199E-01
  0.98317255E-02  0.81506319E-02 -0.22281152E-02
  0.10451556E-02 -0.54123344E-02  0.27000722E-02
 -0.11677886E-01  0.74013987E-03 -0.97257477E-02
 -0.19614768E-01  0.22829455E-01  0.53797785E-02
 -0.65584645E-02 -0.17128593E-01 -0.11238688E-02
 -0.14271121E-02  0.73993692E-02 -0.96141797E-02
  0.43527469E-02 -0.39122151E-02 -0.60004510E-02
 -0.86856831E-02  0.85026223E-02 -0.15022995E-01
 -0.93518964E-02 -0.32054268E-02  0.77177372E-02
  0.53698897E-02 -0.21871998E-02 -0.14175575E-02
 
           1
   3.00000000000000     
 -0.10712447E+01  0.26110163E-01  0.28555989E-01 -0.10985778E+01
  0.24495962E+00  0.28500236E+00  0.98326263E+00
  0.21239277E+00  0.21575545E+00  0.43420120E+00
  0.22358162E+00  0.68109765E+00  0.87392398E+00
  0.22894914E+00  0.71278532E+00  0.48445622E+00
  0.80702779E+00  0.25487246E+00  0.49228777E-01
  0.76888611E+00  0.25506702E+00  0.46659909E+00
  0.67918741E+00  0.80927869E+00  0.26276332E-01
  0.77560510E+00  0.76129784E+00  0.46830261E+00
  0.46887717E+00  0.94883676E+00  0.25812518E+00
  0.21457707E+00  0.94323962E+00  0.77427164E+00
  0.23498739E+00  0.52929763E+00  0.26943597E+00
  0.22076120E+00  0.44573120E+00  0.66785056E+00
  0.61520047E+00  0.89428939E+00  0.55700623E+00
  0.86547035E+00  0.12857752E+00  0.90585550E+00
  0.75686238E+00  0.55738119E+00  0.20413838E+00
  0.74773403E+00  0.49915550E+00  0.75194595E+00
  0.30818678E-02  0.28204775E+00  0.20911008E+00
  0.95506847E+00  0.18840103E+00  0.71551796E+00
  0.12226797E+00  0.79069752E+00  0.96346292E-01
  0.92030560E+00  0.80405660E+00  0.72005950E+00
  0.42453255E+00  0.16390834E+00  0.24813579E+00
  0.50715190E+00  0.20649238E+00  0.78045164E+00
  0.40660444E+00  0.71191639E+00  0.28784386E+00
  0.41248453E+00  0.68167537E+00  0.80403389E+00
  0.15812255E-02  0.35588871E-01  0.10557934E+00
  0.41688708E-01  0.38595782E-01  0.54955731E+00
  0.96640001E+00  0.53387055E+00  0.90719812E+00
  0.31929169E-01  0.51992159E+00  0.49724952E+00
  0.51692362E+00  0.98797045E+00  0.25618091E-01
  0.55319281E+00  0.32293991E-01  0.68581473E+00
  0.46212134E+00  0.44929363E+00  0.59112674E-02
  0.47512844E+00  0.47445460E+00  0.49424753E+00
  0.73418447E-01  0.10471545E+00  0.30818836E+00
  0.10951091E+00  0.13017657E+00  0.90040634E+00
  0.95710088E-01  0.67772744E+00  0.32949973E+00
  0.74061569E-01  0.61109457E+00  0.75165115E+00
  0.57920065E+00  0.99521072E-01  0.45776369E+00
  0.63478811E+00  0.16634847E+00  0.95534685E+00
  0.59975427E+00  0.63492094E+00  0.35096795E+00
  0.63976717E+00  0.65297397E+00  0.86765474E+00
  0.11948571E+00  0.42867854E+00  0.77998774E-01
  0.68550451E-01  0.32474656E+00  0.56270063E+00
  0.35490001E+00  0.83185171E+00  0.77370068E-02
  0.94224977E-01  0.84496706E+00  0.62817222E+00
  0.65412500E+00  0.45404076E+00  0.55798226E-01
  0.63248827E+00  0.36921487E+00  0.63628690E+00
  0.69194553E+00  0.82404698E+00  0.25713970E+00
  0.73718562E+00  0.98478923E+00  0.78022329E+00
  0.46545622E+00  0.25198346E+00  0.64076077E-01
  0.34302523E+00  0.39494877E-02  0.57350811E+00
  0.32861105E+00  0.57757672E+00  0.71405738E-01
  0.35730368E+00  0.59589111E+00  0.59309516E+00
  0.84780557E+00  0.12515885E+00  0.22133236E+00
  0.82527410E+00  0.54692109E-01  0.55926125E+00
  0.89995541E+00  0.67478310E+00  0.47274452E-01
  0.86289694E+00  0.59397556E+00  0.60659777E+00
  0.34847212E+00  0.37979907E+00  0.34859935E+00
  0.28185728E+00  0.43704270E+00  0.85360553E+00
  0.39813412E+00  0.83861486E+00  0.44745921E+00
  0.42955742E+00  0.89941129E+00  0.79502003E+00
  0.90649277E+00  0.43908841E+00  0.34749404E+00
  0.87369440E+00  0.37038608E+00  0.85655393E+00
  0.92488673E+00  0.90123684E+00  0.41954444E+00
  0.88193793E+00  0.89374571E+00  0.96008182E+00
  0.00000000E+00  0.00000000E+00  0.00000000E+00
  0.00000000E+00  0.00000000E+00  0.00000000E+00
  0.00000000E+00  0.00000000E+00  0.00000000E+00
  0.00000000E+00  0.00000000E+00  0.00000000E+00
  0.00000000E+00  0.00000000E+00  0.00000000E+00
  0.00000000E+00  0.00000000E+00  0.00000000E+00
  0.00000000E+00  0.00000000E+00  0.00000000E+00
  0.00000000E+00  0.00000000E+00  0.00000000E+00
  0.00000000E+00  0.00000000E+00  0.00000000E+00
  0.00000000E+00  0.00000000E+00  0.00000000E+00
  0.00000000E+00  0.00000000E+00  0.00000000E+00
  0.00000000E+00  0.00000000E+00  0.00000000E+00
  0.00000000E+00  0.00000000E+00  0.00000000E+00
  0.00000000E+00  0.00000000E+00  0.00000000E+00
  0.00000000E+00  0.00000000E+00  0.00000000E+00
  0.00000000E+00  0.00000000E+00  0.00000000E+00
  0.00000000E+00  0.00000000E+00  0.00000000E+00
  0.00000000E+00  0.00000000E+00  0.00000000E+00
  0.00000000E+00  0.00000000E+00  0.00000000E+00
  0.00000000E+00  0.00000000E+00  0.00000000E+00
  0.00000000E+00  0.00000000E+00  0.00000000E+00
  0.00000000E+00  0.00000000E+00  0.00000000E+00
  0.00000000E+00  0.00000000E+00  0.00000000E+00
  0.00000000E+00  0.00000000E+00  0.00000000E+00
  0.00000000E+00  0.00000000E+00  0.00000000E+00
  0.00000000E+00  0.00000000E+00  0.00000000E+00
  0.00000000E+00  0.00000000E+00  0.00000000E+00
  0.00000000E+00  0.00000000E+00  0.00000000E+00
  0.00000000E+00  0.00000000E+00  0.00000000E+00
  0.00000000E+00  0.00000000E+00  0.00000000E+00
  0.00000000E+00  0.00000000E+00  0.00000000E+00
  0.00000000E+00  0.00000000E+00  0.00000000E+00
  0.00000000E+00  0.00000000E+00  0.00000000E+00
  0.00000000E+00  0.00000000E+00  0.00000000E+00
  0.00000000E+00  0.00000000E+00  0.00000000E+00
  0.00000000E+00  0.00000000E+00  0.00000000E+00
  0.00000000E+00  0.00000000E+00  0.00000000E+00
  0.00000000E+00  0.00000000E+00  0.00000000E+00
  0.00000000E+00  0.00000000E+00  0.00000000E+00
  0.00000000E+00  0.00000000E+00  0.00000000E+00
  0.00000000E+00  0.00000000E+00  0.00000000E+00
  0.00000000E+00  0.00000000E+00  0.00000000E+00
  0.00000000E+00  0.00000000E+00  0.00000000E+00
  0.00000000E+00  0.00000000E+00  0.00000000E+00
  0.00000000E+00  0.00000000E+00  0.00000000E+00
  0.00000000E+00  0.00000000E+00  0.00000000E+00
  0.00000000E+00  0.00000000E+00  0.00000000E+00
  0.00000000E+00  0.00000000E+00  0.00000000E+00
  0.00000000E+00  0.00000000E+00  0.00000000E+00
  0.00000000E+00  0.00000000E+00  0.00000000E+00
  0.00000000E+00  0.00000000E+00  0.00000000E+00
  0.00000000E+00  0.00000000E+00  0.00000000E+00
  0.00000000E+00  0.00000000E+00  0.00000000E+00
  0.00000000E+00  0.00000000E+00  0.00000000E+00
  0.00000000E+00  0.00000000E+00  0.00000000E+00
  0.00000000E+00  0.00000000E+00  0.00000000E+00
  0.00000000E+00  0.00000000E+00  0.00000000E+00
  0.00000000E+00  0.00000000E+00  0.00000000E+00
  0.00000000E+00  0.00000000E+00  0.00000000E+00
  0.00000000E+00  0.00000000E+00  0.00000000E+00
  0.00000000E+00  0.00000000E+00  0.00000000E+00
  0.00000000E+00  0.00000000E+00  0.00000000E+00
  0.00000000E+00  0.00000000E+00  0.00000000E+00
  0.00000000E+00  0.00000000E+00  0.00000000E+00
  0.00000000E+00  0.00000000E+00  0.00000000E+00
  0.00000000E+00  0.00000000E+00  0.00000000E+00
  0.00000000E+00  0.00000000E+00  0.00000000E+00
  0.00000000E+00  0.00000000E+00  0.00000000E+00
  0.00000000E+00  0.00000000E+00  0.00000000E+00
  0.00000000E+00  0.00000000E+00  0.00000000E+00
  0.00000000E+00  0.00000000E+00  0.00000000E+00
  0.00000000E+00  0.00000000E+00  0.00000000E+00
  0.00000000E+00  0.00000000E+00  0.00000000E+00
  0.00000000E+00  0.00000000E+00  0.00000000E+00
  0.00000000E+00  0.00000000E+00  0.00000000E+00
  0.00000000E+00  0.00000000E+00  0.00000000E+00
  0.00000000E+00  0.00000000E+00  0.00000000E+00
  0.00000000E+00  0.00000000E+00  0.00000000E+00
  0.00000000E+00  0.00000000E+00  0.00000000E+00
  0.00000000E+00  0.00000000E+00  0.00000000E+00
  0.00000000E+00  0.00000000E+00  0.00000000E+00
  0.00000000E+00  0.00000000E+00  0.00000000E+00
  0.00000000E+00  0.00000000E+00  0.00000000E+00
  0.00000000E+00  0.00000000E+00  0.00000000E+00
  0.00000000E+00  0.00000000E+00  0.00000000E+00
  0.00000000E+00  0.00000000E+00  0.00000000E+00
  0.00000000E+00  0.00000000E+00  0.00000000E+00
  0.00000000E+00  0.00000000E+00  0.00000000E+00
  0.00000000E+00  0.00000000E+00  0.00000000E+00
  0.00000000E+00  0.00000000E+00  0.00000000E+00
  0.00000000E+00  0.00000000E+00  0.00000000E+00
  0.00000000E+00  0.00000000E+00  0.00000000E+00
  0.00000000E+00  0.00000000E+00  0.00000000E+00
  0.00000000E+00  0.00000000E+00  0.00000000E+00
  0.00000000E+00  0.00000000E+00  0.00000000E+00
  0.00000000E+00  0.00000000E+00  0.00000000E+00
  0.00000000E+00  0.00000000E+00  0.00000000E+00
  0.00000000E+00  0.00000000E+00  0.00000000E+00
  0.00000000E+00  0.00000000E+00  0.00000000E+00
  0.00000000E+00  0.00000000E+00  0.00000000E+00
  0.00000000E+00  0.00000000E+00  0.00000000E+00
  0.00000000E+00  0.00000000E+00  0.00000000E+00
  0.00000000E+00  0.00000000E+00  0.00000000E+00
  0.00000000E+00  0.00000000E+00  0.00000000E+00
  0.00000000E+00  0.00000000E+00  0.00000000E+00
  0.00000000E+00  0.00000000E+00  0.00000000E+00
  0.00000000E+00  0.00000000E+00  0.00000000E+00
  0.00000000E+00  0.00000000E+00  0.00000000E+00
  0.00000000E+00  0.00000000E+00  0.00000000E+00
  0.00000000E+00  0.00000000E+00  0.00000000E+00
  0.00000000E+00  0.00000000E+00  0.00000000E+00
  0.00000000E+00  0.00000000E+00  0.00000000E+00
  0.00000000E+00  0.00000000E+00  0.00000000E+00
  0.00000000E+00  0.00000000E+00  0.00000000E+00
  0.00000000E+00  0.00000000E+00  0.00000000E+00
  0.00000000E+00  0.00000000E+00  0.00000000E+00
  0.00000000E+00  0.00000000E+00  0.00000000E+00
  0.00000000E+00  0.00000000E+00  0.00000000E+00
  0.00000000E+00  0.00000000E+00  0.00000000E+00
  0.00000000E+00  0.00000000E+00  0.00000000E+00
  0.00000000E+00  0.00000000E+00  0.00000000E+00
  0.00000000E+00  0.00000000E+00  0.00000000E+00
  0.00000000E+00  0.00000000E+00  0.00000000E+00
  0.00000000E+00  0.00000000E+00  0.00000000E+00
  0.00000000E+00  0.00000000E+00  0.00000000E+00
  0.00000000E+00  0.00000000E+00  0.00000000E+00
  0.00000000E+00  0.00000000E+00  0.00000000E+00
  0.00000000E+00  0.00000000E+00  0.00000000E+00
