Se Sn                                   
   1.00000000000000     
     4.3426916962218698    0.0000062138715948    0.0000000000000000
     0.0000060631536394    4.2939103844741648    0.0000000000000000
     0.0000000000000000    0.0000000000000000   24.7585268899999988
   Se   Sn
     2     2
Direct
  0.0766337848341914  0.9999096978042415  0.4456386603333594
  0.5766297139059635  0.4999101794389076  0.5543657671462109
  0.1156840769296073  0.9999143614514576  0.5554445616312124
  0.6156826600377562  0.4999145464525304  0.4445567967746520
 
  0.00000000E+00  0.00000000E+00  0.00000000E+00
  0.00000000E+00  0.00000000E+00  0.00000000E+00
  0.00000000E+00  0.00000000E+00  0.00000000E+00
  0.00000000E+00  0.00000000E+00  0.00000000E+00
