Generated by VASPKIT code               
   1.00000000000000     
     3.3635995388000000    0.0000000000000000    0.0000000000000000
     0.0000000000000000    5.8492295303079995    0.0000000000000000
     0.0000000000000000    0.0000000000000000   20.2525882720999988
   Mo   S    Te
     2     2     2
Direct
  0.4999999903515757  0.1664855456348135  0.5070321739304546
  0.9999999890213758  0.6664855318019391  0.5070322098379023
  0.4999999860409616  0.8334347319415656  0.5796510023687489
  0.9999999896996954  0.3334347469825829  0.5796509822727955
  0.4999999934033994  0.8334128130141139  0.4133167438809195
  0.9999999914829871  0.3334126626249940  0.4133167697091693
 
  0.00000000E+00  0.00000000E+00  0.00000000E+00
  0.00000000E+00  0.00000000E+00  0.00000000E+00
  0.00000000E+00  0.00000000E+00  0.00000000E+00
  0.00000000E+00  0.00000000E+00  0.00000000E+00
  0.00000000E+00  0.00000000E+00  0.00000000E+00
  0.00000000E+00  0.00000000E+00  0.00000000E+00
