&control
    calculation='bands'
    restart_mode='from_scratch',
    pseudo_dir = './pseudo/',
    outdir='wfc-out/'
    prefix='pb'
 /
 &system
    ibrav = 2, celldm(1) = 9.3555, nat= 1, ntyp= 1,
    ecutwfc = 47.0, ecutrho = 189,
    occupations='smearing', smearing='cold', degauss=0.02
    nbnd            = 13
 /
 &electrons
    conv_thr = 1.0e-9
    mixing_beta = 0.7
    diago_full_acc  =  .true.
 /
ATOMIC_SPECIES
 Pb 207.2 Pb.pbe-dn-kjpaw_psl.0.2.2.UPF
ATOMIC_POSITIONS (crystal)
 Pb 0.0 0.0 0.0

K_POINTS crystal_b
6
 0.00  0.00  0.00 40 !G  
 0.50  0.50  0.00 40 !X
 0.50  0.75  0.25 40 !W
 0.00  0.50  0.00 40 !L
 0.00  0.00  0.00 40 !G
 0.00  0.50 -0.50 40 !K
