&DOS
  outdir='./wfc-out',
  fildos='dos.dat',
  emin=-9.0,
  emax=16.0
/