 POSCAR with strain of 0.003            
   1.00000000000000     
     4.3823567649389998    0.0054779459560000    0.0054779459560000
     0.0053655973210000    4.2924778571899997    0.0053655973210000
     0.0250000000000000    0.0250000000000000   20.0500000000000007
   Sn   Se
     2     2
Direct
  0.5802590436315185  0.7503958264745425  0.5685702812900885
  0.0820491711605027  0.2519515470104823  0.4314295526104467
  0.0321558259037816  0.2480225208335873  0.5669029221695454
  0.5337439333041972  0.7496301056813880  0.4330972439299267
 
  0.00000000E+00  0.00000000E+00  0.00000000E+00
  0.00000000E+00  0.00000000E+00  0.00000000E+00
  0.00000000E+00  0.00000000E+00  0.00000000E+00
  0.00000000E+00  0.00000000E+00  0.00000000E+00
