 POSCAR with strain of 0.010            
   1.00000000000000     
     4.4261803325890003    0.0219117838250000    0.0000000000000000
     0.0214623892860000    4.2924778571899997    0.0000000000000000
     0.0000000000000000    0.0000000000000000   20.0000000000000000
   Sn   Se
     2     2
Direct
  0.5853496326043686  0.7539883550818572  0.5688305992145511
  0.0853496326043688  0.2539883550818571  0.4311694007854485
  0.0287543683956324  0.2460116449181430  0.5668039557523235
  0.5287543403956303  0.7460116449181428  0.4331960442476834
 
  0.00000000E+00  0.00000000E+00  0.00000000E+00
  0.00000000E+00  0.00000000E+00  0.00000000E+00
  0.00000000E+00  0.00000000E+00  0.00000000E+00
  0.00000000E+00  0.00000000E+00  0.00000000E+00
