Se Sn                                   
   1.00000000000000     
4.3952242570632636 0.0000062138715948 0.0000000000000000
     0.0000060631536394    4.2939103844741648    0.0000000000000000
     0.0000000000000000    0.0000000000000000   24.7585268899999988
   Se   Sn
     2     2
Direct
  0.0725148040180576  0.9999164941868435  0.4458074494467483
  0.5725520825206472  0.4999057645908845  0.5541932409250843
  0.1197727054625748  0.9999149533336872  0.5555103543912296
  0.6197906437062463  0.4999115730357221  0.4444947411223724
 
  0.00000000E+00  0.00000000E+00  0.00000000E+00
  0.00000000E+00  0.00000000E+00  0.00000000E+00
  0.00000000E+00  0.00000000E+00  0.00000000E+00
  0.00000000E+00  0.00000000E+00  0.00000000E+00
