 POSCAR with strain of 0.010            
   1.00000000000000     
     4.3823567649389998    0.0219117838250000    0.0219117838250000
     0.0214623892860000    4.2924778571899997    0.0214623892860000
     0.1000000000000000    0.1000000000000000   20.1999999999999993
   Sn   Se
     2     2
Direct
  0.5779858163980253  0.7516168046175252  0.5680924014464138
  0.0841754398976078  0.2579255685688037  0.4319071917296714
  0.0300012145737080  0.2421555166985875  0.5663846241032500
  0.5360455031306591  0.7483021101150836  0.4336157827206717
 
  0.00000000E+00  0.00000000E+00  0.00000000E+00
  0.00000000E+00  0.00000000E+00  0.00000000E+00
  0.00000000E+00  0.00000000E+00  0.00000000E+00
  0.00000000E+00  0.00000000E+00  0.00000000E+00
