Primitive Graphene                   
   1.00000000000000     
     2.4670692143087054    0.0000000000000000    0.0000000000000000
     1.2335346071043662    2.1365375393991073    0.0000000000000000
     0.0000000000000000    0.0000000000000000    8.6850376129000004
   C 
     2
Direct
  0.3333176162  0.3333682635  0.5000000000
  0.6666524017  0.6666987324  0.5000000000
 
