B  O                                    
   1.00000000000000     
     6.6314145817462764    0.0000000000000000    0.0000000000000000
     0.0000000000000000    4.4699224210824386    0.0000000000000000
     0.0000000000000000    0.0000000000000000   23.7642002300000037
   B    O 
     4     6
Direct
  0.1708433279257378  0.3026318794626235  0.5274295456723763
  0.8357400648158588  0.3026318742724072  0.4725593545002056
  0.6708443404321258  0.8026315802428527  0.4725691652723540
  0.3357393491940357  0.8026313762087440  0.5274393920220533
  0.6874212125505679  0.5030775844293274  0.4586640072977062
  0.3191458653667212  0.5030754116517997  0.5413413659294477
  0.1874200000986335  0.0030764988465606  0.5413350043685483
  0.8191448990489363  0.0030772282786344  0.4586576496675363
  0.0033134073397960  0.4101281383315438  0.4999843908685548
  0.5033161687161538  0.9101284392273286  0.5000145037618324
 
  0.00000000E+00  0.00000000E+00  0.00000000E+00
  0.00000000E+00  0.00000000E+00  0.00000000E+00
  0.00000000E+00  0.00000000E+00  0.00000000E+00
  0.00000000E+00  0.00000000E+00  0.00000000E+00
  0.00000000E+00  0.00000000E+00  0.00000000E+00
  0.00000000E+00  0.00000000E+00  0.00000000E+00
  0.00000000E+00  0.00000000E+00  0.00000000E+00
  0.00000000E+00  0.00000000E+00  0.00000000E+00
  0.00000000E+00  0.00000000E+00  0.00000000E+00
  0.00000000E+00  0.00000000E+00  0.00000000E+00
