B  O                                    
   1.00000000000000     
     6.6314145817462764    0.0000000000000000    0.0000000000000000
     0.0000000000000000    4.4699224210824386    0.0000000000000000
     0.0000000000000000    0.0000000000000000   23.7642002300000037
   B    O 
     4     6
Direct
  0.1708433279257348  0.3026318794626239  0.5274295456723772
  0.8357400648158603  0.3026318742724107  0.4725593545002054
  0.6708443404321232  0.8026315802428514  0.4725691652723571
  0.3357393491940382  0.8026313762087431  0.5274393920220500
  0.6874212125505696  0.5030775844293255  0.4586640072977096
  0.3191458653667214  0.5030754116517991  0.5413413659294457
  0.1874200000986323  0.0030764988465590  0.5413350043685468
  0.8191448990489379  0.0030772282786368  0.4586576496675384
  0.0033134073397958  0.4101281383315434  0.4999843908685553
  0.5033161687161534  0.9101284392273293  0.5000145037618302
 
  0.00000000E+00  0.00000000E+00  0.00000000E+00
  0.00000000E+00  0.00000000E+00  0.00000000E+00
  0.00000000E+00  0.00000000E+00  0.00000000E+00
  0.00000000E+00  0.00000000E+00  0.00000000E+00
  0.00000000E+00  0.00000000E+00  0.00000000E+00
  0.00000000E+00  0.00000000E+00  0.00000000E+00
  0.00000000E+00  0.00000000E+00  0.00000000E+00
  0.00000000E+00  0.00000000E+00  0.00000000E+00
  0.00000000E+00  0.00000000E+00  0.00000000E+00
  0.00000000E+00  0.00000000E+00  0.00000000E+00
