&inputpp 
   outdir="./wfc-out"
   seedname = "INCAR"
   prefix = 'bi2se3'
   spin_component = 'none'
   write_mmn = .true.
   write_amn = .true.
   write_unk = .true.
/
