Se Sn                                   
   1.00000000000000     
     4.3777134034494658    0.0000062138715948    0.0000000000000000
     0.0000060631536394    4.2767347429362683    0.0000000000000000
     0.0000000000000000    0.0000000000000000   24.7585268899999988
   Se   Sn
     2     2
Direct
  0.0731666898668255  0.9999092664395365  0.4458124808169412
  0.5731516914573956  0.4999122579625033  0.5541915411481979
  0.1191605834956866  0.9999129555175663  0.5555802024273141
  0.6191512708876111  0.4999143052275309  0.4444215614929820
 
  0.00000000E+00  0.00000000E+00  0.00000000E+00
  0.00000000E+00  0.00000000E+00  0.00000000E+00
  0.00000000E+00  0.00000000E+00  0.00000000E+00
  0.00000000E+00  0.00000000E+00  0.00000000E+00
