B  O                                    
   1.00000000000000     
     6.6314145817462764    0.0000000000000000    0.0000000000000000
     0.0000000000000000    4.3989712715414475    0.0000000000000000
     0.0000000000000000    0.0000000000000000   23.7642002300000037
   B    O 
     4     6
Direct
  0.1698766260877491  0.3032433961878738  0.5273231413891963
  0.8367104270499368  0.3032460808517712  0.4726619529978322
  0.6698768404209616  0.8032440396005214  0.4726758366651538
  0.3367102198077561  0.8032456673998922  0.5273369821190670
  0.6843556064900369  0.4994060265304867  0.4588573451230005
  0.3221978480473169  0.4994074695581716  0.5411515128795230
  0.1843550893175134  0.9994047466181328  0.5411414020242304
  0.8221977892309695  0.9994078232897223  0.4588472117534508
  0.0033243415028394  0.4162425994365506  0.4999788628938049
  0.5033238475334798  0.9162421614786922  0.5000201315153703
 
  0.00000000E+00  0.00000000E+00  0.00000000E+00
  0.00000000E+00  0.00000000E+00  0.00000000E+00
  0.00000000E+00  0.00000000E+00  0.00000000E+00
  0.00000000E+00  0.00000000E+00  0.00000000E+00
  0.00000000E+00  0.00000000E+00  0.00000000E+00
  0.00000000E+00  0.00000000E+00  0.00000000E+00
  0.00000000E+00  0.00000000E+00  0.00000000E+00
  0.00000000E+00  0.00000000E+00  0.00000000E+00
  0.00000000E+00  0.00000000E+00  0.00000000E+00
  0.00000000E+00  0.00000000E+00  0.00000000E+00
