 POSCAR with strain of -0.005           
   1.00000000000000     
     4.3823567649389998    0.0000000000000000    0.0000000000000000
     0.0000000000000000    4.2710154679040002    0.0000000000000000
     0.0000000000000000    0.0000000000000000   20.0000000000000000
   Sn   Se
     2     2
Direct
  0.5803477827484080  0.7499999986095546  0.5688473601216354
  0.0803477620135698  0.2499999977271271  0.4311526066779324
  0.0337562123442793  0.2500000014973615  0.5670638839297455
  0.5337562168937431  0.7500000021659569  0.4329361492706938
 
  0.00000000E+00  0.00000000E+00  0.00000000E+00
  0.00000000E+00  0.00000000E+00  0.00000000E+00
  0.00000000E+00  0.00000000E+00  0.00000000E+00
  0.00000000E+00  0.00000000E+00  0.00000000E+00
