Ta4 Cu4 S12                             
1.0
        9.4405069351         0.0000000000         0.0000000000
        0.0000000000        10.4683160782         0.0000000000
        0.0000000000         0.0000000000        23.3935527802
   Ta   Cu    S
   24   24   72
Direct
     0.108658799         0.250000000         0.434305895
     0.108658799         0.250000000         0.934305936
     0.108658799         0.583333386         0.434305895
     0.108658799         0.583333386         0.934305936
     0.108658799         0.916666705         0.434305895
     0.108658799         0.916666705         0.934305936
     0.891341213         0.083333335         0.065694100
     0.891341213         0.083333335         0.565694105
     0.891341213         0.416666705         0.065694100
     0.891341213         0.416666705         0.565694105
     0.891341213         0.750000023         0.065694100
     0.891341213         0.750000023         0.565694105
     0.608658787         0.250000000         0.315694084
     0.608658787         0.250000000         0.815694125
     0.608658787         0.583333386         0.315694084
     0.608658787         0.583333386         0.815694125
     0.608658787         0.916666705         0.315694084
     0.608658787         0.916666705         0.815694125
     0.391341188         0.083333335         0.184305895
     0.391341188         0.083333335         0.684305916
     0.391341188         0.416666705         0.184305895
     0.391341188         0.416666705         0.684305916
     0.391341188         0.750000023         0.184305895
     0.391341188         0.750000023         0.684305916
     0.273743397         0.250000000         0.105687237
     0.273743397         0.250000000         0.605687267
     0.273743397         0.583333386         0.105687237
     0.273743397         0.583333386         0.605687267
     0.273743397         0.916666705         0.105687237
     0.273743397         0.916666705         0.605687267
     0.226256603         0.083333335         0.355687247
     0.226256603         0.083333335         0.855687247
     0.226256603         0.416666705         0.355687247
     0.226256603         0.416666705         0.855687247
     0.226256603         0.750000023         0.355687247
     0.226256603         0.750000023         0.855687247
     0.773743372         0.250000000         0.144312753
     0.773743372         0.250000000         0.644312753
     0.773743372         0.583333386         0.144312753
     0.773743372         0.583333386         0.644312753
     0.773743372         0.916666705         0.144312753
     0.773743372         0.916666705         0.644312753
     0.726256628         0.083333335         0.394312733
     0.726256628         0.083333335         0.894312733
     0.726256628         0.416666705         0.394312733
     0.726256628         0.416666705         0.894312733
     0.726256628         0.750000023         0.394312733
     0.726256628         0.750000023         0.894312733
     0.580941741         0.250000000         0.201503323
     0.580941741         0.250000000         0.701503364
     0.580941741         0.583333386         0.201503323
     0.580941741         0.583333386         0.701503364
     0.580941741         0.916666705         0.201503323
     0.580941741         0.916666705         0.701503364
     0.422205291         0.083333335         0.086562101
     0.422205291         0.083333335         0.586562091
     0.422205291         0.416666705         0.086562101
     0.422205291         0.416666705         0.586562091
     0.422205291         0.750000023         0.086562101
     0.422205291         0.750000023         0.586562091
     0.577794734         0.250000000         0.413437909
     0.577794734         0.250000000         0.913437868
     0.577794734         0.583333386         0.413437909
     0.577794734         0.583333386         0.913437868
     0.577794734         0.916666705         0.413437909
     0.577794734         0.916666705         0.913437868
     0.922205367         0.083333335         0.163437888
     0.922205367         0.083333335         0.663437888
     0.922205367         0.416666705         0.163437888
     0.922205367         0.416666705         0.663437888
     0.922205367         0.750000023         0.163437888
     0.922205367         0.750000023         0.663437888
     0.217158190         0.250000000         0.200640255
     0.217158190         0.250000000         0.700640255
     0.217158190         0.583333386         0.200640255
     0.217158190         0.583333386         0.700640255
     0.217158190         0.916666705         0.200640255
     0.217158190         0.916666705         0.700640255
     0.782841785         0.083333335         0.299359745
     0.782841785         0.083333335         0.799359704
     0.782841785         0.416666705         0.299359745
     0.782841785         0.416666705         0.799359704
     0.782841785         0.750000023         0.299359745
     0.782841785         0.750000023         0.799359704
     0.717158215         0.250000000         0.049359755
     0.717158215         0.250000000         0.549359725
     0.717158215         0.583333386         0.049359755
     0.717158215         0.583333386         0.549359725
     0.717158215         0.916666705         0.049359755
     0.717158215         0.916666705         0.549359725
     0.282841810         0.083333335         0.450640275
     0.282841810         0.083333335         0.950640275
     0.282841810         0.416666705         0.450640275
     0.282841810         0.416666705         0.950640275
     0.282841810         0.750000023         0.450640275
     0.282841810         0.750000023         0.950640275
     0.080941773         0.250000000         0.048496702
     0.080941773         0.250000000         0.548496738
     0.080941773         0.583333386         0.048496702
     0.080941773         0.583333386         0.548496738
     0.080941773         0.916666705         0.048496702
     0.080941773         0.916666705         0.548496738
     0.919058309         0.083333335         0.451503303
     0.919058309         0.083333335         0.951503303
     0.919058309         0.416666705         0.451503303
     0.919058309         0.416666705         0.951503303
     0.919058309         0.750000023         0.451503303
     0.919058309         0.750000023         0.951503303
     0.419058208         0.083333335         0.298496697
     0.419058208         0.083333335         0.798496758
     0.419058208         0.416666705         0.298496697
     0.419058208         0.416666705         0.798496758
     0.419058208         0.750000023         0.298496697
     0.419058208         0.750000023         0.798496758
     0.077794716         0.250000000         0.336562132
     0.077794716         0.250000000         0.836562193
     0.077794716         0.583333386         0.336562132
     0.077794716         0.583333386         0.836562193
     0.077794716         0.916666705         0.336562132
     0.077794716         0.916666705         0.836562193
