generated by phonopy
   1.0
     3.5495236522617990    0.0000000000000000    0.0000000000000000
    -1.7747618260810285    3.0739776541999086    0.0000000000000000
     0.0000000000000000    0.0000000000000000   20.0000000000000000
Mo Te
   1    2
Direct
  0.3338256498201421  0.6666666870000029  0.5004922998201454
  0.6666666870000029  0.3333333429999997  0.4097234371897338
  0.6666666870000029  0.3333333429999997  0.5902765628102663
