# System Setting
SYSTEM  = 5x5BN-B1
PREC    = Accurate   # Accurate works best
GGA     = PE         # PE=PBE, 91=Perdew-Wang-91
ENCUT   = 600

# Type of Calculation
NSW     = 80         # Maximum Number of ionic relaxation steps to perform For SCF set it to 0
ISIF    = 3          # Which type of run to perform 0=MD, 2=Atomic Relax, 3=Atomic and Unit cell relax
IBRION  = 2          # Determines how ions are moved -1=for scf only no update,0=MD, 2=conjugate gradientg algorithm
ISPIN   = 1          # 1=spin unpol, 2=spin pol
# NBANDS  = 144      # Checked by dry run
# IVDW = 12          # D3 vdw correction

# ISYM    = 0

# Continue or Fresh
ISTART  = 0          # 0=Scratch, 1=Continuation Job only read wavecar file 
ICHARG  = 2          # 2=ch den from sup pos of atoms , 0=ch den from wave function 1=read CHGCAR file

# Stopping Criteria
EDIFF   = 1.0E-6     # Energy Convergence in electronic steps
EDIFFG  = -1.0E-3    # Force conv in ionic steps, -ve for force +ve for energy diffrence

# Smearing
ISMEAR  = 0          # 0=Gaussina Smearing
SIGMA   = 0.05        # Smearing width

# Paralalisation 
    # Since NBANDS=144 NKPTS=16 (checked by dry run)
    # 12 Nodes with 24 cores-per-node is chosen i.e all bands parallised k-point split in 2 parts
NCORE = 6   # 6*24 = 144
KPAR  = 2

# Dos setting
EMIN    = -20
EMAX    = 20
NEDOS   = 1000       # No of grid points for DOS
LORBIT  = 11         # Ideal for projected-DOS

# Potentail setting
LVTOT   = .FALSE.    # Total pot with    Vxc will be written to LOCPOT file for .TRUE.
LVHAR   = .FALSE.     # Total pot without Vxc will be written to LOCPOT file for .TRUE.
