S  Pb                                   
   1.00000000000000     
     4.1822670133276212    0.0000000000000000    0.0000000000000000
     0.0000000000000000    8.5586881764378777    0.0000000000000000
     0.0000000000000000    0.0000000000000000   27.8166048499999974
   S    Pb
     6     6
Direct
  0.4999999600357299  0.3881121039675861  0.6046818771407700
  0.5000000498456671  0.3881121032799939  0.3953181204989917
  0.4999999669329469  0.8881121162355896  0.3953181178467560
  0.5000000424309974  0.8881121285702207  0.6046818748064737
  0.9999999903670300  0.6513549716759144  0.4999999957813159
  0.9999999916421061  0.1513549595045660  0.4999999974490592
  0.9999999207130372  0.1667226888535751  0.6038532783053014
  0.0000000745648805  0.1667226779637190  0.3961467274116899
  0.9999999189300439  0.6667226580801895  0.3961467298380654
  0.0000000746497406  0.6667226476531027  0.6038532755354069
  0.5000000010847927  0.4050976565236084  0.5000000061150871
  0.5000000007564864  0.9050976524479850  0.4999999999900524
 
  0.00000000E+00  0.00000000E+00  0.00000000E+00
  0.00000000E+00  0.00000000E+00  0.00000000E+00
  0.00000000E+00  0.00000000E+00  0.00000000E+00
  0.00000000E+00  0.00000000E+00  0.00000000E+00
  0.00000000E+00  0.00000000E+00  0.00000000E+00
  0.00000000E+00  0.00000000E+00  0.00000000E+00
  0.00000000E+00  0.00000000E+00  0.00000000E+00
  0.00000000E+00  0.00000000E+00  0.00000000E+00
  0.00000000E+00  0.00000000E+00  0.00000000E+00
  0.00000000E+00  0.00000000E+00  0.00000000E+00
  0.00000000E+00  0.00000000E+00  0.00000000E+00
  0.00000000E+00  0.00000000E+00  0.00000000E+00
