B  O                                    
   1.00000000000000     
     6.6314145817462764    0.0000000000000000    0.0000000000000000
     0.0000000000000000    4.4167090589266955    0.0000000000000000
     0.0000000000000000    0.0000000000000000   23.7642002300000037
   B    O 
     4     6
Direct
  0.1701147172334174  0.3030856170602334  0.5273562840828774
  0.8364719488824761  0.3030886602568472  0.4726301274024038
  0.6701135772899676  0.8030870661073095  0.4726430015383869
  0.3364726438193060  0.8030883773849240  0.5273689302380191
  0.6851199610566212  0.5003377628270655  0.4587978870380098
  0.3214358812282256  0.5003397853657887  0.5412089156389897
  0.1851203006172994  0.0003381656085679  0.5412006445089972
  0.8214368581568507  0.0003393656465107  0.4587895380695031
  0.0033217530423073  0.4146931336678250  0.4999805252310523
  0.5033209941620882  0.9146920770267428  0.5000185256123686
 
  0.00000000E+00  0.00000000E+00  0.00000000E+00
  0.00000000E+00  0.00000000E+00  0.00000000E+00
  0.00000000E+00  0.00000000E+00  0.00000000E+00
  0.00000000E+00  0.00000000E+00  0.00000000E+00
  0.00000000E+00  0.00000000E+00  0.00000000E+00
  0.00000000E+00  0.00000000E+00  0.00000000E+00
  0.00000000E+00  0.00000000E+00  0.00000000E+00
  0.00000000E+00  0.00000000E+00  0.00000000E+00
  0.00000000E+00  0.00000000E+00  0.00000000E+00
  0.00000000E+00  0.00000000E+00  0.00000000E+00
