S  Pb                                   
   1.00000000000000     
     4.1822670133276212    0.0000000000000000    0.0000000000000000
     0.0000000000000000    8.4907620797994827    0.0000000000000000
     0.0000000000000000    0.0000000000000000   27.8166048499999974
   S    Pb
     6     6
Direct
  0.5000000363663872  0.3901309626058804  0.6047509033705936
  0.4999999829110635  0.3901308925097737  0.3952491196941494
  0.4999999243495736  0.8901309753825615  0.3952491172005566
  0.5000000868332819  0.8901309157819099  0.6047509017122650
  0.9999999946700697  0.6517035786994967  0.4999999984516066
  0.9999999951030105  0.1517035956773114  0.4999999873063103
  0.9999999583872992  0.1647522705996707  0.6039787169792987
  0.0000000383150578  0.1647523680649030  0.3960212760023509
  0.9999999622373750  0.6647522715633940  0.3960212814937165
  0.0000000282443011  0.6647523608720931  0.6039787056604311
  0.4999999931741925  0.4046521353045378  0.4999999835693316
  0.4999999913618325  0.9046520376945040  0.5000000092783807
 
  0.00000000E+00  0.00000000E+00  0.00000000E+00
  0.00000000E+00  0.00000000E+00  0.00000000E+00
  0.00000000E+00  0.00000000E+00  0.00000000E+00
  0.00000000E+00  0.00000000E+00  0.00000000E+00
  0.00000000E+00  0.00000000E+00  0.00000000E+00
  0.00000000E+00  0.00000000E+00  0.00000000E+00
  0.00000000E+00  0.00000000E+00  0.00000000E+00
  0.00000000E+00  0.00000000E+00  0.00000000E+00
  0.00000000E+00  0.00000000E+00  0.00000000E+00
  0.00000000E+00  0.00000000E+00  0.00000000E+00
  0.00000000E+00  0.00000000E+00  0.00000000E+00
  0.00000000E+00  0.00000000E+00  0.00000000E+00
