Mo Te 
 1.0000000000000000
     6.3940267105187152    0.0000000000000000    0.0000000000000000
     0.0000000000000000    3.4074920172550214    0.0000000000000000
     0.0000000000000000    0.0000000000000000   28.0000000000000000
   2   4
Cartesian
 -0.0002386786899568 -0.0000000010088623 13.9416118602415420
  2.6195825638574672  1.7037460074452826 14.0583731877971072
  4.0508481140633528 -0.0000000048894192 12.4050492603636435
  0.8168411510437470  1.7037460078937581 12.0198090092438541
  4.6313092505536577 -1.1358306719214262 15.5949456059712652
  1.4712508287720638  0.5679153435265174 15.9802116624105963
