Generated by VASPKIT code               
   1.00000000000000     
     3.3635995388000000    0.0000000000000000    0.0000000000000000
     0.0000000000000000    5.8259258269999998    0.0000000000000000
     0.0000000000000000    0.0000000000000000   20.2525882720999988
   Mo   S    Te
     2     2     2
Direct
  0.4999999993569162  0.1666665356852306  0.5070402021326998
  0.9999999836721472  0.6666665399486362  0.5070402148643467
  0.4999999832709747  0.8333331914166990  0.5797728068184895
  0.9999999861747355  0.3333332127866342  0.5797728130233182
  0.4999999990939301  0.8333332986264850  0.4131869224402820
  0.9999999884312984  0.3333332535363311  0.4131869227208469
 
  0.00000000E+00  0.00000000E+00  0.00000000E+00
  0.00000000E+00  0.00000000E+00  0.00000000E+00
  0.00000000E+00  0.00000000E+00  0.00000000E+00
  0.00000000E+00  0.00000000E+00  0.00000000E+00
  0.00000000E+00  0.00000000E+00  0.00000000E+00
  0.00000000E+00  0.00000000E+00  0.00000000E+00
