Mo Te 
 1.0000000000000000
     6.3940267105187152    0.0000000000000000    0.0000000000000000
     0.0000000000000000    3.4074920172550214    0.0000000000000000
     0.0000000000000000    0.0000000000000000   28.0000000000000000
   2   4
Cartesian
 -0.0000895045087338 -0.0000000003783234 13.9781046366297623
  2.9804770442633606  1.7037460081841751 14.0218901344630993
  4.2057494730413758 -0.0000000018335322 12.2742651013057689
  0.9948635148719254  1.7037460083523535 12.1298000071358469
  4.4234223886612103 -0.4259365019705348 15.7257329735698228
  1.2402671334560138  1.2778095092146382 15.8702077447345715
