Mo Te                                   
   1.00000000000000     
     6.3899999999999997    0.0000000000000000    0.0000000000000000
     0.0000000000000000    3.3999999999999999    0.0000000000000000
     0.0000000000000000    0.0000000000000000   20.0000000000000000
   Mo   Te
     2     4
Direct
  0.0000000000000000  0.0000000000000000  0.5000031194154175
  0.5000000589999942  0.5000000000000000  0.5000031194154175
  0.6722978309359391  0.0000000000000000  0.4097928345858435
  0.1722978309359391  0.5000000000000000  0.4097928345858435
  0.6722978282924643  0.0000000000000000  0.5902133739987292
  0.1722978282924643  0.5000000000000000  0.5902133739987292
 
  0.00000000E+00  0.00000000E+00  0.00000000E+00
  0.00000000E+00  0.00000000E+00  0.00000000E+00
  0.00000000E+00  0.00000000E+00  0.00000000E+00
  0.00000000E+00  0.00000000E+00  0.00000000E+00
  0.00000000E+00  0.00000000E+00  0.00000000E+00
  0.00000000E+00  0.00000000E+00  0.00000000E+00
