Mo Te 
 1.0000000000000000
     6.3899999999999997    0.0000000000000000    0.0000000000000000
     0.0000000000000000    3.3999999999999999    0.0000000000000000
     0.0000000000000000    0.0000000000000000   20.0000000000000000
 Mo  Te 
   2   4
Cartesian
  0.0000000000000000  0.0000000000000000 10.0000623883084199
  3.1950003770099631  1.7000000000000000 10.0000623883084199
  4.2959831396806711  0.0000000000000000  8.1958566917168891
  1.1009831396806700  1.7000000000000000  8.1958566917168891
  4.2959831227888570  0.0000000000000000 11.8042674799746390
  1.1009831227888578  1.7000000000000000 11.8042674799746390
