 SnSe-Monolayer                         
   1.00000000000000     
     4.3385331972897614    0.0000000000000000    0.0000000000000000
     0.0000000000000000    4.2924778571900175    0.0000000000000000
     0.0000000000000000    0.0000000000000000   20.0000000000000000
   Sn   Se
     2     2
Direct
  0.5760682737934104  0.7500000000000000  0.5686648801555094
  0.0760682737934104  0.2500000000000000  0.4313351198444906
  0.0380357272065908  0.2500000000000000  0.5673195097781161
  0.5380356992065884  0.7500000000000000  0.4326804902218910
 
  0.00000000E+00  0.00000000E+00  0.00000000E+00
  0.00000000E+00  0.00000000E+00  0.00000000E+00
  0.00000000E+00  0.00000000E+00  0.00000000E+00
  0.00000000E+00  0.00000000E+00  0.00000000E+00
