B  O                                    
   1.00000000000000     
     6.6314145817462764    0.0000000000000000    0.0000000000000000
     0.0000000000000000    4.3989712715414475    0.0000000000000000
     0.0000000000000000    0.0000000000000000   23.7642002300000037
   B    O 
     4     6
Direct
  0.1698766260877506  0.3032433961878732  0.5273231413891962
  0.8367104270499346  0.3032460808517745  0.4726619529978299
  0.6698768404209622  0.8032440396005195  0.4726758366651507
  0.3367102198077583  0.8032456673998953  0.5273369821190634
  0.6843556064900359  0.4994060265304895  0.4588573451229983
  0.3221978480473179  0.4994074695581709  0.5411515128795203
  0.1843550893175121 -0.0005952533818696  0.5411414020242274
  0.8221977892309720 -0.0005921767102795  0.4588472117534531
  0.0033243415028410  0.4162425994365537  0.4999788628938039
  0.5033238475334814  0.9162421614786952  0.5000201315153709
 
  0.00000000E+00  0.00000000E+00  0.00000000E+00
  0.00000000E+00  0.00000000E+00  0.00000000E+00
  0.00000000E+00  0.00000000E+00  0.00000000E+00
  0.00000000E+00  0.00000000E+00  0.00000000E+00
  0.00000000E+00  0.00000000E+00  0.00000000E+00
  0.00000000E+00  0.00000000E+00  0.00000000E+00
  0.00000000E+00  0.00000000E+00  0.00000000E+00
  0.00000000E+00  0.00000000E+00  0.00000000E+00
  0.00000000E+00  0.00000000E+00  0.00000000E+00
  0.00000000E+00  0.00000000E+00  0.00000000E+00
