 POSCAR with strain of 0.007            
   1.00000000000000     
     4.4152244406760000    0.0000000000000000    0.0000000000000000
     0.0000000000000000    4.2924778571899997    0.0000000000000000
     0.0000000000000000    0.0000000000000000   20.0000000000000000
   Sn   Se
     2     2
Direct
  0.5844071473672918  0.7499999997698477  0.5687868588932656
  0.0844071420444290  0.2499999996654831  0.4312131686410565
  0.0296968425400509  0.2500000000127314  0.5668937999739424
  0.5296968420482283  0.7500000005519378  0.4331061724917425
 
  0.00000000E+00  0.00000000E+00  0.00000000E+00
  0.00000000E+00  0.00000000E+00  0.00000000E+00
  0.00000000E+00  0.00000000E+00  0.00000000E+00
  0.00000000E+00  0.00000000E+00  0.00000000E+00
