Mo Te                                   
   1.00000000000000     
     6.3940267105187152    0.0000000000000000    0.0000000000000000
     0.0000000000000000    3.4074920172550214    0.0000000000000000
     0.0000000000000000    0.0000000000000000   28.0000000000000000
   Mo   Te
     2     4
Direct
  0.9990283658741042  0.9234340340482033  0.5000977567085317
  0.4856040124434231  0.4210764989961784  0.4999074086552548
  0.6640243434823215  0.9256291387747169  0.4365331625365839
  0.1620306179067481  0.4278175655215394  0.4343329807693583
  0.6669498399936835  0.9150595755850807  0.5632111607148168
  0.1664340203250170  0.4157574980210385  0.5659175517428714
 
             NaN             NaN             NaN
             NaN             NaN             NaN
             NaN             NaN             NaN
             NaN             NaN             NaN
             NaN             NaN             NaN
             NaN             NaN             NaN
