EDIFF = 1e-06
EDIFFG = -0.001
ENCUT = 600
GGA = PE
IBRION = -1
ICHARG = 2
ISMEAR = 0
ISPIN = 1
ISTART = 0
KPAR = 1
LAECHG = True
LCHARG = True
LELF = True
LVHAR = True
LVTOT = False
LWAVE = True
NCORE = 24
NSW = 0
PREC = Accurate
SIGMA = 0.05
SYSTEM = GeS
