KPOINTS written by PYMATGEN
0
Monkhorst
16 16 1
