 GeSe-Monolayer                         
   1.00000000000000     
     4.4737705367068736    0.0000000000000000    0.0000000000000000
     0.0000000000000000    3.6645197456585903    0.0000000000000000
     0.0000000000000000    0.0000000000000000   20.0000000000000000
   Ge   S 
     2     2
Direct
  0.6225479541792796  0.7500000000000000  0.5641005982379403
  0.1225479541792796  0.2500000000000000  0.4358994017620596
 -0.0084439531792785  0.2500000000000000  0.5537040927138469
  0.4915560188207193  0.7500000000000000  0.4462959072861597
 
  0.00000000E+00  0.00000000E+00  0.00000000E+00
  0.00000000E+00  0.00000000E+00  0.00000000E+00
  0.00000000E+00  0.00000000E+00  0.00000000E+00
  0.00000000E+00  0.00000000E+00  0.00000000E+00
