Generated by VASPKIT code               
   1.00000000000000     
     3.3635995388000000    0.0000000000000000    0.0000000000000000
     0.0000000000000000    5.8259258269999998    0.0000000000000000
     0.0000000000000000    0.0000000000000000   20.2525882720999988
   Mo   S    Te
     2     2     2
Direct
  0.4999999993569142  0.1666665356852320  0.5070402021327030
 -0.0000000163278537  0.6666665399486332  0.5070402148643486
  0.4999999832709744  0.8333331914166974  0.5797728068184893
 -0.0000000138252659  0.3333332127866315  0.5797728130233171
  0.4999999990939302  0.8333332986264848  0.4131869224402807
 -0.0000000115687042  0.3333332535363302  0.4131869227208444
 
  0.00000000E+00  0.00000000E+00  0.00000000E+00
  0.00000000E+00  0.00000000E+00  0.00000000E+00
  0.00000000E+00  0.00000000E+00  0.00000000E+00
  0.00000000E+00  0.00000000E+00  0.00000000E+00
  0.00000000E+00  0.00000000E+00  0.00000000E+00
  0.00000000E+00  0.00000000E+00  0.00000000E+00
