 POSCAR with strain of 0.005            
   1.00000000000000     
     4.3823567649389998    0.0109558919120000    0.0109558919120000
     0.0107311946430000    4.2924778571899997    0.0107311946430000
     0.0500000000000000    0.0500000000000000   20.1000000000000014
   Sn   Se
     2     2
Direct
  0.5794775814279863  0.7507828641758467  0.5684075429994164
  0.0828272886527705  0.2539930885733420  0.4315975924085343
  0.0313597729398391  0.2460994990958730  0.5667289262263340
  0.5345433309794040  0.7491245481549383  0.4332659383657217
 
  0.00000000E+00  0.00000000E+00  0.00000000E+00
  0.00000000E+00  0.00000000E+00  0.00000000E+00
  0.00000000E+00  0.00000000E+00  0.00000000E+00
  0.00000000E+00  0.00000000E+00  0.00000000E+00
