Mo Te                                   
   1.00000000000000     
     6.3899999999999997    0.0000000000000000    0.0000000000000000
     0.0000000000000000    3.3999999999999999    0.0000000000000000
     0.0000000000000000    0.0000000000000000   20.0000000000000000
   Mo   Te
     2     4
Direct
  0.0000000000000000  0.0000000000000000  0.5071385125829480
  0.3644802414158832  0.5000000000000000  0.5159318824170569
  0.6140911545731527  0.0000000000000000  0.4370259673451287
  0.1055293280549847  0.5000000000000000  0.4081010294643335
  0.7503890648427216  0.5000000000000000  0.5860443976548737
  0.2589509143608950  0.0000000000000000  0.6149693355356689
 
  0.00000000E+00  0.00000000E+00  0.00000000E+00
  0.00000000E+00  0.00000000E+00  0.00000000E+00
  0.00000000E+00  0.00000000E+00  0.00000000E+00
  0.00000000E+00  0.00000000E+00  0.00000000E+00
  0.00000000E+00  0.00000000E+00  0.00000000E+00
  0.00000000E+00  0.00000000E+00  0.00000000E+00
