Mo Te 
 1.0000000000000000
     6.3899999999999997    0.0000000000000000    0.0000000000000000
     0.0000000000000000    3.3999999999999999    0.0000000000000000
     0.0000000000000000    0.0000000000000000   20.0000000000000000
 Mo  Te 
   2   4
Cartesian
  0.0000000000000000  0.0000000000000000 10.1427702516589751
  2.3290287426474863  1.7000000000000000 10.3186376483411237
  3.9240424777224665  0.0000000000000000  8.7405193469026283
  0.6743324062713579  1.7000000000000000  8.1620205892867297
  4.7949861243450096  1.7000000000000000 11.7208879530974244
  1.6546963427661081  0.0000000000000000 12.2993867107133230
