Mo Te
   1.000
    6.3940267105187152    0.0000000000000000    0.0000000000000000
    0.0000000000000000    3.4074920172550214    0.0000000000000000
    0.0000000000000000    0.0000000000000000   28.0000000000000000
   Mo   Te
    2    4
Direct
    0.0000000000000000    0.0000000000000000    0.4969821088847015    Mo1
    0.3644802414158821    0.5000000000000000    0.5030179117074153    Mo2
    0.6140911545731560    0.0000000000000000    0.4488565885850070    Te1
    0.1055293280549856    0.5000000000000000    0.4290024001451504    Te2
    0.7503890648427246    0.5000000000000000    0.5511434114149930    Te3
    0.2589509143608933    0.0000000000000000    0.5709975998548495    Te4
