num_wann        =  15 
num_iter        = 20


begin atoms_frac
 Bi 0.3990    0.3990    0.6970
 Bi 0.6010    0.6010    0.3030
 Se 0.0000    0.0000    0.5000
 Se 0.2060    0.2060    0.1180
 Se 0.7940    0.7940    0.8820
end atoms_frac


begin projections
Bi:p
Se:p
end projections


begin unit_cell_cart
-2.069  -3.583614  0.000000    
 2.069  -3.583614  0.000000
 0.000   2.389075  9.546667
end unit_cell_cart

mp_grid : 12 12 2

begin kpoints
  0.00000000  0.00000000  0.00000000 
  0.00000000  0.00000000  0.50000000 
  0.00000000  0.08333333  0.00000000 
  0.00000000  0.08333333  0.50000000 
  0.00000000  0.16666667  0.00000000 
  0.00000000  0.16666667  0.50000000 
  0.00000000  0.25000000  0.00000000 
  0.00000000  0.25000000  0.50000000 
  0.00000000  0.33333333  0.00000000 
  0.00000000  0.33333333  0.50000000 
  0.00000000  0.41666667  0.00000000 
  0.00000000  0.41666667  0.50000000 
  0.00000000  0.50000000  0.00000000 
  0.00000000  0.50000000  0.50000000 
  0.00000000  0.58333333  0.00000000 
  0.00000000  0.58333333  0.50000000 
  0.00000000  0.66666667  0.00000000 
  0.00000000  0.66666667  0.50000000 
  0.00000000  0.75000000  0.00000000 
  0.00000000  0.75000000  0.50000000 
  0.00000000  0.83333333  0.00000000 
  0.00000000  0.83333333  0.50000000 
  0.00000000  0.91666667  0.00000000 
  0.00000000  0.91666667  0.50000000 
  0.08333333  0.00000000  0.00000000 
  0.08333333  0.00000000  0.50000000 
  0.08333333  0.08333333  0.00000000 
  0.08333333  0.08333333  0.50000000 
  0.08333333  0.16666667  0.00000000 
  0.08333333  0.16666667  0.50000000 
  0.08333333  0.25000000  0.00000000 
  0.08333333  0.25000000  0.50000000 
  0.08333333  0.33333333  0.00000000 
  0.08333333  0.33333333  0.50000000 
  0.08333333  0.41666667  0.00000000 
  0.08333333  0.41666667  0.50000000 
  0.08333333  0.50000000  0.00000000 
  0.08333333  0.50000000  0.50000000 
  0.08333333  0.58333333  0.00000000 
  0.08333333  0.58333333  0.50000000 
  0.08333333  0.66666667  0.00000000 
  0.08333333  0.66666667  0.50000000 
  0.08333333  0.75000000  0.00000000 
  0.08333333  0.75000000  0.50000000 
  0.08333333  0.83333333  0.00000000 
  0.08333333  0.83333333  0.50000000 
  0.08333333  0.91666667  0.00000000 
  0.08333333  0.91666667  0.50000000 
  0.16666667  0.00000000  0.00000000 
  0.16666667  0.00000000  0.50000000 
  0.16666667  0.08333333  0.00000000 
  0.16666667  0.08333333  0.50000000 
  0.16666667  0.16666667  0.00000000 
  0.16666667  0.16666667  0.50000000 
  0.16666667  0.25000000  0.00000000 
  0.16666667  0.25000000  0.50000000 
  0.16666667  0.33333333  0.00000000 
  0.16666667  0.33333333  0.50000000 
  0.16666667  0.41666667  0.00000000 
  0.16666667  0.41666667  0.50000000 
  0.16666667  0.50000000  0.00000000 
  0.16666667  0.50000000  0.50000000 
  0.16666667  0.58333333  0.00000000 
  0.16666667  0.58333333  0.50000000 
  0.16666667  0.66666667  0.00000000 
  0.16666667  0.66666667  0.50000000 
  0.16666667  0.75000000  0.00000000 
  0.16666667  0.75000000  0.50000000 
  0.16666667  0.83333333  0.00000000 
  0.16666667  0.83333333  0.50000000 
  0.16666667  0.91666667  0.00000000 
  0.16666667  0.91666667  0.50000000 
  0.25000000  0.00000000  0.00000000 
  0.25000000  0.00000000  0.50000000 
  0.25000000  0.08333333  0.00000000 
  0.25000000  0.08333333  0.50000000 
  0.25000000  0.16666667  0.00000000 
  0.25000000  0.16666667  0.50000000 
  0.25000000  0.25000000  0.00000000 
  0.25000000  0.25000000  0.50000000 
  0.25000000  0.33333333  0.00000000 
  0.25000000  0.33333333  0.50000000 
  0.25000000  0.41666667  0.00000000 
  0.25000000  0.41666667  0.50000000 
  0.25000000  0.50000000  0.00000000 
  0.25000000  0.50000000  0.50000000 
  0.25000000  0.58333333  0.00000000 
  0.25000000  0.58333333  0.50000000 
  0.25000000  0.66666667  0.00000000 
  0.25000000  0.66666667  0.50000000 
  0.25000000  0.75000000  0.00000000 
  0.25000000  0.75000000  0.50000000 
  0.25000000  0.83333333  0.00000000 
  0.25000000  0.83333333  0.50000000 
  0.25000000  0.91666667  0.00000000 
  0.25000000  0.91666667  0.50000000 
  0.33333333  0.00000000  0.00000000 
  0.33333333  0.00000000  0.50000000 
  0.33333333  0.08333333  0.00000000 
  0.33333333  0.08333333  0.50000000 
  0.33333333  0.16666667  0.00000000 
  0.33333333  0.16666667  0.50000000 
  0.33333333  0.25000000  0.00000000 
  0.33333333  0.25000000  0.50000000 
  0.33333333  0.33333333  0.00000000 
  0.33333333  0.33333333  0.50000000 
  0.33333333  0.41666667  0.00000000 
  0.33333333  0.41666667  0.50000000 
  0.33333333  0.50000000  0.00000000 
  0.33333333  0.50000000  0.50000000 
  0.33333333  0.58333333  0.00000000 
  0.33333333  0.58333333  0.50000000 
  0.33333333  0.66666667  0.00000000 
  0.33333333  0.66666667  0.50000000 
  0.33333333  0.75000000  0.00000000 
  0.33333333  0.75000000  0.50000000 
  0.33333333  0.83333333  0.00000000 
  0.33333333  0.83333333  0.50000000 
  0.33333333  0.91666667  0.00000000 
  0.33333333  0.91666667  0.50000000 
  0.41666667  0.00000000  0.00000000 
  0.41666667  0.00000000  0.50000000 
  0.41666667  0.08333333  0.00000000 
  0.41666667  0.08333333  0.50000000 
  0.41666667  0.16666667  0.00000000 
  0.41666667  0.16666667  0.50000000 
  0.41666667  0.25000000  0.00000000 
  0.41666667  0.25000000  0.50000000 
  0.41666667  0.33333333  0.00000000 
  0.41666667  0.33333333  0.50000000 
  0.41666667  0.41666667  0.00000000 
  0.41666667  0.41666667  0.50000000 
  0.41666667  0.50000000  0.00000000 
  0.41666667  0.50000000  0.50000000 
  0.41666667  0.58333333  0.00000000 
  0.41666667  0.58333333  0.50000000 
  0.41666667  0.66666667  0.00000000 
  0.41666667  0.66666667  0.50000000 
  0.41666667  0.75000000  0.00000000 
  0.41666667  0.75000000  0.50000000 
  0.41666667  0.83333333  0.00000000 
  0.41666667  0.83333333  0.50000000 
  0.41666667  0.91666667  0.00000000 
  0.41666667  0.91666667  0.50000000 
  0.50000000  0.00000000  0.00000000 
  0.50000000  0.00000000  0.50000000 
  0.50000000  0.08333333  0.00000000 
  0.50000000  0.08333333  0.50000000 
  0.50000000  0.16666667  0.00000000 
  0.50000000  0.16666667  0.50000000 
  0.50000000  0.25000000  0.00000000 
  0.50000000  0.25000000  0.50000000 
  0.50000000  0.33333333  0.00000000 
  0.50000000  0.33333333  0.50000000 
  0.50000000  0.41666667  0.00000000 
  0.50000000  0.41666667  0.50000000 
  0.50000000  0.50000000  0.00000000 
  0.50000000  0.50000000  0.50000000 
  0.50000000  0.58333333  0.00000000 
  0.50000000  0.58333333  0.50000000 
  0.50000000  0.66666667  0.00000000 
  0.50000000  0.66666667  0.50000000 
  0.50000000  0.75000000  0.00000000 
  0.50000000  0.75000000  0.50000000 
  0.50000000  0.83333333  0.00000000 
  0.50000000  0.83333333  0.50000000 
  0.50000000  0.91666667  0.00000000 
  0.50000000  0.91666667  0.50000000 
  0.58333333  0.00000000  0.00000000 
  0.58333333  0.00000000  0.50000000 
  0.58333333  0.08333333  0.00000000 
  0.58333333  0.08333333  0.50000000 
  0.58333333  0.16666667  0.00000000 
  0.58333333  0.16666667  0.50000000 
  0.58333333  0.25000000  0.00000000 
  0.58333333  0.25000000  0.50000000 
  0.58333333  0.33333333  0.00000000 
  0.58333333  0.33333333  0.50000000 
  0.58333333  0.41666667  0.00000000 
  0.58333333  0.41666667  0.50000000 
  0.58333333  0.50000000  0.00000000 
  0.58333333  0.50000000  0.50000000 
  0.58333333  0.58333333  0.00000000 
  0.58333333  0.58333333  0.50000000 
  0.58333333  0.66666667  0.00000000 
  0.58333333  0.66666667  0.50000000 
  0.58333333  0.75000000  0.00000000 
  0.58333333  0.75000000  0.50000000 
  0.58333333  0.83333333  0.00000000 
  0.58333333  0.83333333  0.50000000 
  0.58333333  0.91666667  0.00000000 
  0.58333333  0.91666667  0.50000000 
  0.66666667  0.00000000  0.00000000 
  0.66666667  0.00000000  0.50000000 
  0.66666667  0.08333333  0.00000000 
  0.66666667  0.08333333  0.50000000 
  0.66666667  0.16666667  0.00000000 
  0.66666667  0.16666667  0.50000000 
  0.66666667  0.25000000  0.00000000 
  0.66666667  0.25000000  0.50000000 
  0.66666667  0.33333333  0.00000000 
  0.66666667  0.33333333  0.50000000 
  0.66666667  0.41666667  0.00000000 
  0.66666667  0.41666667  0.50000000 
  0.66666667  0.50000000  0.00000000 
  0.66666667  0.50000000  0.50000000 
  0.66666667  0.58333333  0.00000000 
  0.66666667  0.58333333  0.50000000 
  0.66666667  0.66666667  0.00000000 
  0.66666667  0.66666667  0.50000000 
  0.66666667  0.75000000  0.00000000 
  0.66666667  0.75000000  0.50000000 
  0.66666667  0.83333333  0.00000000 
  0.66666667  0.83333333  0.50000000 
  0.66666667  0.91666667  0.00000000 
  0.66666667  0.91666667  0.50000000 
  0.75000000  0.00000000  0.00000000 
  0.75000000  0.00000000  0.50000000 
  0.75000000  0.08333333  0.00000000 
  0.75000000  0.08333333  0.50000000 
  0.75000000  0.16666667  0.00000000 
  0.75000000  0.16666667  0.50000000 
  0.75000000  0.25000000  0.00000000 
  0.75000000  0.25000000  0.50000000 
  0.75000000  0.33333333  0.00000000 
  0.75000000  0.33333333  0.50000000 
  0.75000000  0.41666667  0.00000000 
  0.75000000  0.41666667  0.50000000 
  0.75000000  0.50000000  0.00000000 
  0.75000000  0.50000000  0.50000000 
  0.75000000  0.58333333  0.00000000 
  0.75000000  0.58333333  0.50000000 
  0.75000000  0.66666667  0.00000000 
  0.75000000  0.66666667  0.50000000 
  0.75000000  0.75000000  0.00000000 
  0.75000000  0.75000000  0.50000000 
  0.75000000  0.83333333  0.00000000 
  0.75000000  0.83333333  0.50000000 
  0.75000000  0.91666667  0.00000000 
  0.75000000  0.91666667  0.50000000 
  0.83333333  0.00000000  0.00000000 
  0.83333333  0.00000000  0.50000000 
  0.83333333  0.08333333  0.00000000 
  0.83333333  0.08333333  0.50000000 
  0.83333333  0.16666667  0.00000000 
  0.83333333  0.16666667  0.50000000 
  0.83333333  0.25000000  0.00000000 
  0.83333333  0.25000000  0.50000000 
  0.83333333  0.33333333  0.00000000 
  0.83333333  0.33333333  0.50000000 
  0.83333333  0.41666667  0.00000000 
  0.83333333  0.41666667  0.50000000 
  0.83333333  0.50000000  0.00000000 
  0.83333333  0.50000000  0.50000000 
  0.83333333  0.58333333  0.00000000 
  0.83333333  0.58333333  0.50000000 
  0.83333333  0.66666667  0.00000000 
  0.83333333  0.66666667  0.50000000 
  0.83333333  0.75000000  0.00000000 
  0.83333333  0.75000000  0.50000000 
  0.83333333  0.83333333  0.00000000 
  0.83333333  0.83333333  0.50000000 
  0.83333333  0.91666667  0.00000000 
  0.83333333  0.91666667  0.50000000 
  0.91666667  0.00000000  0.00000000 
  0.91666667  0.00000000  0.50000000 
  0.91666667  0.08333333  0.00000000 
  0.91666667  0.08333333  0.50000000 
  0.91666667  0.16666667  0.00000000 
  0.91666667  0.16666667  0.50000000 
  0.91666667  0.25000000  0.00000000 
  0.91666667  0.25000000  0.50000000 
  0.91666667  0.33333333  0.00000000 
  0.91666667  0.33333333  0.50000000 
  0.91666667  0.41666667  0.00000000 
  0.91666667  0.41666667  0.50000000 
  0.91666667  0.50000000  0.00000000 
  0.91666667  0.50000000  0.50000000 
  0.91666667  0.58333333  0.00000000 
  0.91666667  0.58333333  0.50000000 
  0.91666667  0.66666667  0.00000000 
  0.91666667  0.66666667  0.50000000 
  0.91666667  0.75000000  0.00000000 
  0.91666667  0.75000000  0.50000000 
  0.91666667  0.83333333  0.00000000 
  0.91666667  0.83333333  0.50000000 
  0.91666667  0.91666667  0.00000000 
  0.91666667  0.91666667  0.50000000 
end kpoints

wannier_plot = .true.
write_hr = .true.
wannier_plot_supercell = 3
wannier_plot_format = cube
wannier_plot_mode = crystal
wannier_plot_radius = 2.5
wannier_plot_scale = 1.0
