Mo Te 
 1.0000000000000000
     6.3900000000000000    0.0000000000000000    0.0000000000000000
     0.0000000000000000    3.4000000000000000    0.0000000000000000
     0.0000000000000000    0.0000000000000000   20.0000000000000000
 Mo  Te 
   2   4
Direct
  0.0000000000000000  0.0000000000000000  0.5071385125829487
  0.3644802414158821  0.5000000000000000  0.5159318824170562
  0.6140911545731560  0.0000000000000000  0.4370259673451314
  0.1055293280549856  0.5000000000000000  0.4081010294643365
  0.7503890648427246  0.5000000000000000  0.5860443976548713
  0.2589509143608933  0.0000000000000000  0.6149693355356661
