 SnSe-Monolayer                         
   1.00000000000000     
     4.3998861919989096    0.0000000000000000    0.0000000000000000
     0.0000000000000000    4.2924778571900175    0.0000000000000000
     0.0000000000000000    0.0000000000000000   20.0000000000000000
   Sn   Se
     2     2
Direct
  0.5829026732922529  0.7500000000000000  0.5687782352232773
  0.0829026732922529  0.2500000000000000  0.4312217647767227
  0.0312013277077483  0.2500000000000000  0.5669671746116833
  0.5312012997077460  0.7500000000000000  0.4330328253883238
 
  0.00000000E+00  0.00000000E+00  0.00000000E+00
  0.00000000E+00  0.00000000E+00  0.00000000E+00
  0.00000000E+00  0.00000000E+00  0.00000000E+00
  0.00000000E+00  0.00000000E+00  0.00000000E+00
