Generated by VASPKIT code               
   1.00000000000000     
     3.3635995388000000    0.0000000000000000    0.0000000000000000
     0.0000000000000000    5.8026221236920001    0.0000000000000000
     0.0000000000000000    0.0000000000000000   20.2525882720999988
   Mo   S    Te
     2     2     2
Direct
  0.4999999905564607  0.1668532650089389  0.5070512049477500
  0.9999999888319806  0.6668531850418873  0.5070514029006787
  0.4999999854026029  0.8332271016461590  0.5798939857574936
  0.9999999902121885  0.3332268869435069  0.5798939164654229
  0.4999999935204968  0.8332531271765404  0.4130546352442366
  0.9999999914762654  0.3332524661829765  0.4130547366844013
 
  0.00000000E+00  0.00000000E+00  0.00000000E+00
  0.00000000E+00  0.00000000E+00  0.00000000E+00
  0.00000000E+00  0.00000000E+00  0.00000000E+00
  0.00000000E+00  0.00000000E+00  0.00000000E+00
  0.00000000E+00  0.00000000E+00  0.00000000E+00
  0.00000000E+00  0.00000000E+00  0.00000000E+00
