 SnSe-Monolayer-pristine                
   1.00000000000000     
    13.1470699310000008    0.0000000000000000    0.0000000000000000
     0.0000000000000000   12.8774337769000002    0.0000000000000000
     0.0000000000000000    0.0000000000000000   20.0000000000000000
   Sn   Se
    18    18
Direct
  0.1937477740000020  0.2500000000000000  0.5687431690000011
  0.1937477740000020  0.5833333129999971  0.5687431690000011
  0.1937477740000020  0.9166666870000029  0.5687431690000011
  0.5270811319999993  0.2500000000000000  0.5687431690000011
  0.5270811319999993  0.5833333129999971  0.5687431690000011
  0.5270811319999993  0.9166666870000029  0.5687431690000011
  0.8604144450000035  0.2500000000000000  0.5687431690000011
  0.8604144450000035  0.5833333129999971  0.5687431690000011
  0.8604144450000035  0.9166666870000029  0.5687431690000011
  0.0270811190000018  0.0833333360000026  0.4312568599999977
  0.0270811190000018  0.4166666570000004  0.4312568599999977
  0.0270811190000018  0.7500000000000000  0.4312568599999977
  0.3604144450000035  0.0833333360000026  0.4312568599999977
  0.3604144450000035  0.4166666570000004  0.4312568599999977
  0.3604144450000035  0.7500000000000000  0.4312568599999977
  0.6937477589999972  0.0833333360000026  0.4312568599999977
  0.6937477589999972  0.4166666570000004  0.4312568599999977
  0.6937477589999972  0.7500000000000000  0.4312568599999977
  0.0109535480000034  0.0833333360000026  0.5670738820000025
  0.0109535480000034  0.4166666570000004  0.5670738820000025
  0.0109535480000034  0.7500000000000000  0.5670738820000025
  0.3442868890000028  0.0833333360000026  0.5670738820000025
  0.3442868890000028  0.4166666570000004  0.5670738820000025
  0.3442868890000028  0.7500000000000000  0.5670738820000025
  0.6776202320000024  0.0833333360000026  0.5670738820000025
  0.6776202320000024  0.4166666570000004  0.5670738820000025
  0.6776202320000024  0.7500000000000000  0.5670738820000025
  0.1776202169999976  0.2500000000000000  0.4329261480000000
  0.1776202169999976  0.5833333129999971  0.4329261480000000
  0.1776202169999976  0.9166666870000029  0.4329261480000000
  0.5109535460000032  0.2500000000000000  0.4329261480000000
  0.5109535460000032  0.5833333129999971  0.4329261480000000
  0.5109535460000032  0.9166666870000029  0.4329261480000000
  0.8442868590000003  0.2500000000000000  0.4329261480000000
  0.8442868590000003  0.5833333129999971  0.4329261480000000
  0.8442868590000003  0.9166666870000029  0.4329261480000000
 
  0.00000000E+00  0.00000000E+00  0.00000000E+00
  0.00000000E+00  0.00000000E+00  0.00000000E+00
  0.00000000E+00  0.00000000E+00  0.00000000E+00
  0.00000000E+00  0.00000000E+00  0.00000000E+00
  0.00000000E+00  0.00000000E+00  0.00000000E+00
  0.00000000E+00  0.00000000E+00  0.00000000E+00
  0.00000000E+00  0.00000000E+00  0.00000000E+00
  0.00000000E+00  0.00000000E+00  0.00000000E+00
  0.00000000E+00  0.00000000E+00  0.00000000E+00
  0.00000000E+00  0.00000000E+00  0.00000000E+00
  0.00000000E+00  0.00000000E+00  0.00000000E+00
  0.00000000E+00  0.00000000E+00  0.00000000E+00
  0.00000000E+00  0.00000000E+00  0.00000000E+00
  0.00000000E+00  0.00000000E+00  0.00000000E+00
  0.00000000E+00  0.00000000E+00  0.00000000E+00
  0.00000000E+00  0.00000000E+00  0.00000000E+00
  0.00000000E+00  0.00000000E+00  0.00000000E+00
  0.00000000E+00  0.00000000E+00  0.00000000E+00
  0.00000000E+00  0.00000000E+00  0.00000000E+00
  0.00000000E+00  0.00000000E+00  0.00000000E+00
  0.00000000E+00  0.00000000E+00  0.00000000E+00
  0.00000000E+00  0.00000000E+00  0.00000000E+00
  0.00000000E+00  0.00000000E+00  0.00000000E+00
  0.00000000E+00  0.00000000E+00  0.00000000E+00
  0.00000000E+00  0.00000000E+00  0.00000000E+00
  0.00000000E+00  0.00000000E+00  0.00000000E+00
  0.00000000E+00  0.00000000E+00  0.00000000E+00
  0.00000000E+00  0.00000000E+00  0.00000000E+00
  0.00000000E+00  0.00000000E+00  0.00000000E+00
  0.00000000E+00  0.00000000E+00  0.00000000E+00
  0.00000000E+00  0.00000000E+00  0.00000000E+00
  0.00000000E+00  0.00000000E+00  0.00000000E+00
  0.00000000E+00  0.00000000E+00  0.00000000E+00
  0.00000000E+00  0.00000000E+00  0.00000000E+00
  0.00000000E+00  0.00000000E+00  0.00000000E+00
  0.00000000E+00  0.00000000E+00  0.00000000E+00
