 SnSe-Monolayer                         
   1.00000000000000     
     4.4261803325885438    0.0000000000000000    0.0000000000000000
     0.0000000000000000    4.2924778571900175    0.0000000000000000
     0.0000000000000000    0.0000000000000000   20.0000000000000000
   Sn   Se
     2     2
Direct
  0.5854454442743824  0.7500000000000000  0.5688124133703866
  0.0854454442743823  0.2500000000000000  0.4311875866296135
  0.0286585567256189  0.2500000000000000  0.5668179547926834
  0.5286585287256165  0.7500000000000000  0.4331820452073237
 
  0.00000000E+00  0.00000000E+00  0.00000000E+00
  0.00000000E+00  0.00000000E+00  0.00000000E+00
  0.00000000E+00  0.00000000E+00  0.00000000E+00
  0.00000000E+00  0.00000000E+00  0.00000000E+00
