Te Mo                                   
   1.00000000000000     
     6.1481026062679955    0.0000000000000000    0.0000000000000000
     0.0000000000000000    3.5494708513073139    0.0000000000000000
     0.0000000000000000    0.0000000000000000   28.0000000000000000
   Te   Mo
     4     2
Direct
  0.6666587058419964  0.0000000000000000  0.4355161161375847
  0.1666587058419964  0.5000000000000000  0.4355161161375847
  0.6666587130002171  0.0000000000000000  0.5644838838624153
  0.1666587130002171  0.5000000000000000  0.5644838838624153
  0.0000000000000000  0.0000000000000000  0.4999999838977942
  0.5000000589999942  0.5000000000000000  0.4999999838977942
 
  0.00000000E+00  0.00000000E+00  0.00000000E+00
  0.00000000E+00  0.00000000E+00  0.00000000E+00
  0.00000000E+00  0.00000000E+00  0.00000000E+00
  0.00000000E+00  0.00000000E+00  0.00000000E+00
  0.00000000E+00  0.00000000E+00  0.00000000E+00
  0.00000000E+00  0.00000000E+00  0.00000000E+00
