Generated by VASPKIT code               
   1.00000000000000     
     3.3635995388000000    0.0000000000000000    0.0000000000000000
     0.0000000000000000    5.8375776786540001    0.0000000000000000
     0.0000000000000000    0.0000000000000000   20.2525882720999988
   Mo   S    Te
     2     2     2
Direct
  0.4999999900899124  0.1665777972491929  0.5070376464371240
 -0.0000000106583633  0.6665781918199735  0.5070375423165993
  0.4999999866714184  0.8333839108484061  0.5797114053083192
 -0.0000000101831621  0.3333827865144512  0.5797111985235290
  0.4999999926180591  0.8333717805506496  0.4132510180638766
 -0.0000000085378695  0.3333715650173354  0.4132510713505348
 
  0.00000000E+00  0.00000000E+00  0.00000000E+00
  0.00000000E+00  0.00000000E+00  0.00000000E+00
  0.00000000E+00  0.00000000E+00  0.00000000E+00
  0.00000000E+00  0.00000000E+00  0.00000000E+00
  0.00000000E+00  0.00000000E+00  0.00000000E+00
  0.00000000E+00  0.00000000E+00  0.00000000E+00
