Nb   N 
   1.00000000000000     
   3.1531606985049101   0.0000000000000000   0.0000000000000000
  -1.5765803493054300   2.7307172671937598   0.0000000000000000
   0.0000000000000000   0.0000000000000000  40.0000000000000000
Nb   N 
1  1  
Selective dynamics
Direct
  0.6666666666666640  0.3333333333333360  0.2583729526590160 F F T
  0.0000000000000000  0.0000000000000000  0.2739642272045730 F F T
