Mo Te                                   
   1.00000000000000     
     6.3899999999999997    0.0000000000000000    0.0000000000000000
     0.0000000000000000    3.3999999999999999    0.0000000000000000
     0.0000000000000000    0.0000000000000000   20.0000000000000000
   Mo   Te
     2     4
Direct
  0.0359740130524102  0.9867281413286833  0.5047218497449322
  0.4426765302857731  0.5283433446275083  0.5055187499769005
  0.6579715995091036  0.0176752603834274  0.4213610011725279
  0.1510181145534659  0.4981876694300382  0.4048657698901295
  0.6814617921623096  0.0625572915404078  0.5870727499779562
  0.1760936909158417  0.4065082914700540  0.6082711756897368
 
  0.00000000E+00  0.00000000E+00  0.00000000E+00
  0.00000000E+00  0.00000000E+00  0.00000000E+00
  0.00000000E+00  0.00000000E+00  0.00000000E+00
  0.00000000E+00  0.00000000E+00  0.00000000E+00
  0.00000000E+00  0.00000000E+00  0.00000000E+00
  0.00000000E+00  0.00000000E+00  0.00000000E+00
