Mo Te 
 1.0000000000000000
     6.3899999999999997    0.0000000000000000    0.0000000000000000
     0.0000000000000000    3.3999999999999999    0.0000000000000000
     0.0000000000000000    0.0000000000000000   20.0000000000000000
 Mo  Te 
   2   4
Cartesian
  0.2298739434049037 -0.0451243194824680 10.0944369948986061
  2.8287030285260859  1.7963673717335318 10.1103749995380472
  4.2044385208631514  0.0600958853036413  8.4272200234506158
  0.9650057519966539  1.6938380760621241  8.0973153978025891
  4.3545408519171707  0.2126947912373855 11.7414549995591369
  1.1252386849522300  1.3821281909981833 12.1654235137948046
