B  O                                    
   1.00000000000000     
     6.6048889234192911    0.0000000000000000    0.0000000000000000
     0.0000000000000000    4.4344468463119435    0.0000000000000000
     0.0000000000000000    0.0000000000000000   23.7642002300000037
   B    O 
     4     6
Direct
  0.1703672718749699  0.3028933946923685  0.5277067837674905
  0.8362191663833139  0.3028952059918522  0.4722790471839082
  0.6703682282337372  0.8028930564289883  0.4722919689734814
  0.3362173270292413  0.8028942521910669  0.5277199916819738
  0.6855841626357551  0.5013799024426027  0.4582587683255330
  0.3209719458051118  0.5013807480879555  0.5417492029616698
  0.1855846996325665  0.0013793234549882  0.5417401991328319
  0.8209710153118279  0.0013805089874075  0.4582498837208185
  0.0033232389866806  0.4129966774370724  0.4999797809438938
  0.5033215795953631  0.9129969412375204  0.5000187526690143
 
  0.00000000E+00  0.00000000E+00  0.00000000E+00
  0.00000000E+00  0.00000000E+00  0.00000000E+00
  0.00000000E+00  0.00000000E+00  0.00000000E+00
  0.00000000E+00  0.00000000E+00  0.00000000E+00
  0.00000000E+00  0.00000000E+00  0.00000000E+00
  0.00000000E+00  0.00000000E+00  0.00000000E+00
  0.00000000E+00  0.00000000E+00  0.00000000E+00
  0.00000000E+00  0.00000000E+00  0.00000000E+00
  0.00000000E+00  0.00000000E+00  0.00000000E+00
  0.00000000E+00  0.00000000E+00  0.00000000E+00
