2H-MoS2
 1.0000000000000000
     3.6603875875449998    0.0000000000000000    0.0000000000000000
     0.0000000000000000    6.3399746894649995    0.0000000000000000
     0.0000000000000000    0.0000000000000000   20.0000000000000000
 Mo  S  
   2   4
Direct
  0.4999999999999999  0.1666669990000000  0.4999875430000000
  0.0000000000000000  0.6666669850000000  0.4999875430000000
  0.4999999999999999  0.8333330150000000  0.5781667230000000
  0.0000000000000000  0.3333330150000000  0.5781667230000000
  0.4999999999999999  0.8333330150000000  0.4218083620000000
  0.0000000000000000  0.3333330150000000  0.4218083620000000
