Sn17 Se17
1.0
   0.0000  -12.9313    0.0000
 -12.9633    0.0000    0.0000
  -0.0000    0.0000  -20.0000
Sn Se
17 17
direct
   0.1767    0.8213    0.8662 Sn
   0.3319    0.9752    0.0013 Sn
   0.8233    0.8213    0.8662 Sn
   0.0000    0.9725    0.0014 Sn
   0.5000    0.8077    0.8639 Sn
   0.6681    0.9752    0.0013 Sn
   0.1740    0.4711    0.8657 Sn
   0.3300    0.6424    0.0012 Sn
   0.8260    0.4711    0.8657 Sn
   0.5000    0.4833    0.8637 Sn
   0.6700    0.6424    0.0012 Sn
   0.1617    0.1454    0.8639 Sn
   0.3279    0.3154    0.0009 Sn
   0.8383    0.1454    0.8639 Sn
   0.0000    0.3129    0.0012 Sn
   0.5000    0.1464    0.8653 Sn
   0.6721    0.3154    0.0009 Sn
   0.3279    0.9795    0.8623 Se
   0.1690    0.8197    0.9993 Se
   0.0000    0.9854    0.8648 Se
   0.8310    0.8197    0.9993 Se
   0.6721    0.9795    0.8623 Se
   0.5000    0.8177    0.9993 Se
   0.3342    0.6516    0.8646 Se
   0.1721    0.4786    0.9988 Se
   0.8279    0.4786    0.9988 Se
   0.6658    0.6516    0.8646 Se
   0.5000    0.4854    0.9991 Se
   0.3318    0.3199    0.8619 Se
   0.1660    0.1519    0.9992 Se
   0.0000    0.3168    0.8644 Se
   0.8340    0.1519    0.9992 Se
   0.6682    0.3199    0.8619 Se
   0.5000    0.1481    0.9957 Se
