Sn17 Se17
1.0
  12.9633    0.0000    0.0000
   0.0000   12.9313    0.0000
   0.0000    0.0000   20.0000
Sn Se
17 17
direct
   0.1787    0.8233    0.1338 Sn
   0.0248    0.6681    0.9987 Sn
   0.1787    0.1767    0.1338 Sn
   0.0275    0.0000    0.9986 Sn
   0.1923    0.5000    0.1361 Sn
   0.0248    0.3319    0.9987 Sn
   0.5289    0.8260    0.1343 Sn
   0.3576    0.6700    0.9988 Sn
   0.5289    0.1740    0.1343 Sn
   0.5167    0.5000    0.1363 Sn
   0.3576    0.3300    0.9988 Sn
   0.8546    0.8383    0.1361 Sn
   0.6846    0.6721    0.9991 Sn
   0.8546    0.1617    0.1361 Sn
   0.6871    0.0000    0.9988 Sn
   0.8536    0.5000    0.1347 Sn
   0.6846    0.3279    0.9991 Sn
   0.0205    0.6721    0.1377 Se
   0.1803    0.8310    0.0007 Se
   0.0146    0.0000    0.1352 Se
   0.1803    0.1690    0.0007 Se
   0.0205    0.3279    0.1377 Se
   0.1823    0.5000    0.0007 Se
   0.3484    0.6658    0.1354 Se
   0.5214    0.8279    0.0012 Se
   0.5214    0.1721    0.0012 Se
   0.3484    0.3342    0.1354 Se
   0.5146    0.5000    0.0009 Se
   0.6801    0.6682    0.1381 Se
   0.8481    0.8340    0.0008 Se
   0.6832    0.0000    0.1356 Se
   0.8481    0.1660    0.0008 Se
   0.6801    0.3318    0.1381 Se
   0.8519    0.5000    0.0043 Se
