Se Sn                                   
   1.00000000000000     
     4.3777134034494658    0.0000062138715948    0.0000000000000000
     0.0000060631536394    4.3110860260120614    0.0000000000000000
     0.0000000000000000    0.0000000000000000   24.7585268899999988
   Se   Sn
     2     2
Direct
  0.0718466754729050  0.9999093169761366  0.4458008305972072
  0.5718318097287991  0.4999121750605013  0.5542039651568302
  0.1204799302876580  0.9999132918471290  0.5554377505608414
  0.6204718202181567  0.4999140012633703  0.4445632395705559
 
  0.00000000E+00  0.00000000E+00  0.00000000E+00
  0.00000000E+00  0.00000000E+00  0.00000000E+00
  0.00000000E+00  0.00000000E+00  0.00000000E+00
  0.00000000E+00  0.00000000E+00  0.00000000E+00
