 POSCAR with strain of -0.005           
   1.00000000000000     
     4.3823567649389998   -0.0109558919120000   -0.0109558919120000
    -0.0107311946430000    4.2924778571899997   -0.0107311946430000
    -0.0500000000000000   -0.0500000000000000   19.8999999999999986
   Sn   Se
     2     2
Direct
  0.5828729764864576  0.7492545926566518  0.5690931267315308
  0.0794337116088605  0.2459626127930861  0.4309057841862656
  0.0345582256071653  0.2539260605839175  0.5674033129672678
  0.5313430602975165  0.7508567339663447  0.4325977761149429
 
  0.00000000E+00  0.00000000E+00  0.00000000E+00
  0.00000000E+00  0.00000000E+00  0.00000000E+00
  0.00000000E+00  0.00000000E+00  0.00000000E+00
  0.00000000E+00  0.00000000E+00  0.00000000E+00
