S  Pb                                   
   1.00000000000000     
     4.1822670133276212    0.0000000000000000    0.0000000000000000
     0.0000000000000000    8.5247251281186802    0.0000000000000000
     0.0000000000000000    0.0000000000000000   27.8166048499999974
   S    Pb
     6     6
Direct
  0.4999999658618819  0.3890786889187439  0.6047143283836718
  0.5000000519217309  0.3890786574113179  0.3952856738338966
  0.4999999641454451  0.8890787423000432  0.3952856642332137
  0.5000000530466266  0.8890786645378839  0.6047143179673213
  0.9999999959156014  0.6514887282034110  0.4999999880885966
  0.9999999975294074  0.1514887202524804  0.4999999801689299
  0.9999998935062777  0.1657824177684546  0.6039158949332162
  0.0000000878896174  0.1657824769146572  0.3960841249562534
  0.9999998947563284  0.6657823818910558  0.3960841181426673
  0.0000000958586810  0.6657824449988041  0.6039158899030710
  0.4999999957799446  0.4049112262267442  0.5000000057530301
  0.4999999957419163  0.9049112153324472  0.5000000143551162
 
  0.00000000E+00  0.00000000E+00  0.00000000E+00
  0.00000000E+00  0.00000000E+00  0.00000000E+00
  0.00000000E+00  0.00000000E+00  0.00000000E+00
  0.00000000E+00  0.00000000E+00  0.00000000E+00
  0.00000000E+00  0.00000000E+00  0.00000000E+00
  0.00000000E+00  0.00000000E+00  0.00000000E+00
  0.00000000E+00  0.00000000E+00  0.00000000E+00
  0.00000000E+00  0.00000000E+00  0.00000000E+00
  0.00000000E+00  0.00000000E+00  0.00000000E+00
  0.00000000E+00  0.00000000E+00  0.00000000E+00
  0.00000000E+00  0.00000000E+00  0.00000000E+00
  0.00000000E+00  0.00000000E+00  0.00000000E+00
