C4
1.0
        2.4677243233         0.0000000000         0.0000000000
       -1.2338624462         2.1371117892         0.0000000000
        0.0000000000         0.0000000000         8.6850376129
    C
    2
Direct
     0.000000000         1.000000000         0.750000000
     0.333332986         0.666666985         0.750000000