 SnSe-Monolayer                         
   1.00000000000000     
     4.4174156190586658    0.0000000000000000    0.0000000000000000
     0.0000000000000000    4.2924778571900175    0.0000000000000000
     0.0000000000000000    0.0000000000000000   20.0000000000000000
   Sn   Se
     2     2
Direct
  0.5846568396720642  0.7500000000000000  0.5687965904144221
  0.0846568396720642  0.2500000000000000  0.4312034095855779
  0.0294471613279370  0.2500000000000000  0.5668794098152290
  0.5294471333279347  0.7500000000000000  0.4331205901847781
 
  0.00000000E+00  0.00000000E+00  0.00000000E+00
  0.00000000E+00  0.00000000E+00  0.00000000E+00
  0.00000000E+00  0.00000000E+00  0.00000000E+00
  0.00000000E+00  0.00000000E+00  0.00000000E+00
