SnSe-0.6
 1.0000000000000000
     4.2924778571900175    0.0000000000000000    0.0000000000000000
     0.0000000000000000    4.3823567649391526    0.0000000000000000
     0.0000000000000000    0.0000000000000000   20.0000000000000000
 Sn  Se 
   2   2
Direct
  0.7500000000000000  1.1812433581636119  0.5687431414167269
  0.2500000000000000  0.6812433581636116  0.4312568585832732
  0.2500000000000000  0.6328606428363897  0.5670738664356403
  0.7500000000000000  1.1328606148363876  0.4329261335643668
