 POSCAR with strain of -0.003           
   1.00000000000000     
     4.3823567649389998    0.0000000000000000    0.0000000000000000
     0.0000000000000000    4.2817466625470004    0.0000000000000000
     0.0000000000000000    0.0000000000000000   20.0000000000000000
   Sn   Se
     2     2
Direct
  0.5807537972135280  0.7499999939560008  0.5688007347156995
  0.0807537668791299  0.2499999894362702  0.4311993324963920
  0.0333502299869516  0.2500000134502339  0.5670636580524760
  0.5333501799203906  0.7500000031574950  0.4329362747354395
 
  0.00000000E+00  0.00000000E+00  0.00000000E+00
  0.00000000E+00  0.00000000E+00  0.00000000E+00
  0.00000000E+00  0.00000000E+00  0.00000000E+00
  0.00000000E+00  0.00000000E+00  0.00000000E+00
