B  O                                    
   1.00000000000000     
     6.6048889234192911    0.0000000000000000    0.0000000000000000
     0.0000000000000000    4.4344468463119435    0.0000000000000000
     0.0000000000000000    0.0000000000000000   23.7642002300000037
   B    O 
     4     6
Direct
  0.1703672718749729  0.3028933946923686  0.5277067837674920
  0.8362191663833158  0.3028952059918524  0.4722790471839104
  0.6703682282337340  0.8028930564289851  0.4722919689734795
  0.3362173270292388  0.8028942521910665  0.5277199916819768
  0.6855841626357559  0.5013799024426007  0.4582587683255355
  0.3209719458051126  0.5013807480879535  0.5417492029616682
  0.1855846996325639  0.0013793234549908  0.5417401991328319
  0.8209710153118266  0.0013805089874097  0.4582498837208178
  0.0033232389866811  0.4129966774370715  0.4999797809438959
  0.5033215795953652  0.9129969412375232  0.5000187526690141
 
  0.00000000E+00  0.00000000E+00  0.00000000E+00
  0.00000000E+00  0.00000000E+00  0.00000000E+00
  0.00000000E+00  0.00000000E+00  0.00000000E+00
  0.00000000E+00  0.00000000E+00  0.00000000E+00
  0.00000000E+00  0.00000000E+00  0.00000000E+00
  0.00000000E+00  0.00000000E+00  0.00000000E+00
  0.00000000E+00  0.00000000E+00  0.00000000E+00
  0.00000000E+00  0.00000000E+00  0.00000000E+00
  0.00000000E+00  0.00000000E+00  0.00000000E+00
  0.00000000E+00  0.00000000E+00  0.00000000E+00
