S  Pb                                   
   1.00000000000000     
     4.1822670133276212    0.0000000000000000    0.0000000000000000
     0.0000000000000000    8.5247251281186802    0.0000000000000000
     0.0000000000000000    0.0000000000000000   27.8166048499999974
   S    Pb
     6     6
Direct
  0.4999999658618798  0.3890786889187420  0.6047143283836732
  0.5000000519217340  0.3890786574113212  0.3952856738338936
  0.4999999641454420  0.8890787423000427  0.3952856642332115
  0.5000000530466259  0.8890786645378826  0.6047143179673199
 -0.0000000040843958  0.6514887282034080  0.4999999880885965
  0.9999999975294068  0.1514887202524804  0.4999999801689295
  0.9999998935062808  0.1657824177684567  0.6039158949332130
  0.0000000878896169  0.1657824769146578  0.3960841249562569
  0.9999998947563289  0.6657823818910541  0.3960841181426697
  0.0000000958586775  0.6657824449988050  0.6039158899030711
  0.4999999957799432  0.4049112262267466  0.5000000057530293
  0.4999999957419187  0.9049112153324457  0.5000000143551196
 
  0.00000000E+00  0.00000000E+00  0.00000000E+00
  0.00000000E+00  0.00000000E+00  0.00000000E+00
  0.00000000E+00  0.00000000E+00  0.00000000E+00
  0.00000000E+00  0.00000000E+00  0.00000000E+00
  0.00000000E+00  0.00000000E+00  0.00000000E+00
  0.00000000E+00  0.00000000E+00  0.00000000E+00
  0.00000000E+00  0.00000000E+00  0.00000000E+00
  0.00000000E+00  0.00000000E+00  0.00000000E+00
  0.00000000E+00  0.00000000E+00  0.00000000E+00
  0.00000000E+00  0.00000000E+00  0.00000000E+00
  0.00000000E+00  0.00000000E+00  0.00000000E+00
  0.00000000E+00  0.00000000E+00  0.00000000E+00
