5x5BN-1B                                
   1.00000000000000     
    12.5689447428411345    0.0000004026094148    0.0000000000000000
    -6.2844720232583322   10.8850256474286677    0.0000000000000000
     0.0000000000000000    0.0000000000000000   20.0000000000000000
   B    N 
    24    25
Direct
  0.0668676118447138  0.1330623095034156  0.5000000000000000
  0.0667330691734236  0.3333665803867163  0.5000000000000000
  0.0668676672447219  0.5338053592413061  0.5000000000000000
  0.0667601616451350  0.7335201314902662  0.5000000000000000
  0.0667601170451277  0.9332398899548622  0.5000000000000000
  0.2661969978542302  0.1323939577084658  0.5000000000000000
  0.2684857670267462  0.3332244656357091  0.5000000000000000
  0.2684858299267958  0.5352613928910799  0.5000000000000000
  0.2661970171542407  0.7338030128457689  0.5000000000000000
  0.2664798985097363  0.9332398453548620  0.5000000000000000
  0.4661947509587065  0.1330623472034134  0.5000000000000000
  0.4647387473089708  0.3332245654357138  0.5000000000000000
  0.4647386371089794  0.7315142000732067  0.5000000000000000
  0.4661946707587106  0.9331323397552822  0.5000000000000000
  0.6667118832953989  0.1333559152476980  0.5000000000000000
  0.6666334612132871  0.3333665687867153  0.5000000000000000
  0.6667754645642816  0.5352612826910814  0.5000000000000000
  0.6667755643642295  0.7315142629732065  0.5000000000000000
  0.6666334496132862  0.9332669378265805  0.5000000000000000
  0.8666440790522998  0.1333559359476979  0.5000000000000000
  0.8666440997522997  0.3332881467045894  0.5000000000000000
  0.8669376677965772  0.5338052790413030  0.5000000000000000
  0.8676060572915318  0.7338030321457651  0.5000000000000000
  0.8669377054965679  0.9331323951552832  0.5000000000000000
  0.1330891264315710  0.0662546233895043  0.5000000000000000
  0.1327974805900780  0.2664545354123362  0.5000000000000000
  0.1327974723900596  0.4663428461777528  0.5000000000000000
  0.1330890490315610  0.6668344758420659  0.5000000000000000
  0.1333333142000015  0.8666667008000033  0.5000000000000000
  0.3331655236579323  0.0662546616894986  0.5000000000000000
  0.3323879975970030  0.2647760909940047  0.5000000000000000
  0.3239269580767967  0.4619634039384053  0.5000000000000000
  0.3323881356969878  0.6676118943030005  0.5000000000000000
  0.3331655541579295  0.8669109659684295  0.5000000000000000
  0.5334637079089219  0.0667319094544609  0.5000000000000000
  0.5336570537222585  0.2664546382123376  0.5000000000000000
  0.5380364568616187  0.4619635731384051  0.5000000000000000
  0.5380366260615901  0.6760730719231773  0.5000000000000000
  0.5336571838222284  0.8672025426099097  0.5000000000000000
  0.7333902280402711  0.0667803880805380  0.5000000000000000
  0.7333901816402815  0.2666098483597281  0.5000000000000000
  0.7335453917876933  0.4663429762777511  0.5000000000000000
  0.7352239390060120  0.6676120324029995  0.5000000000000000
  0.7335454945876805  0.8672025344099055  0.5000000000000000
  0.9332681946455281  0.0667318123544618  0.5000000000000000
  0.9332196189194448  0.2666098019597243  0.5000000000000000
  0.9332680975455361  0.4665363220910734  0.5000000000000000
  0.9337453453105056  0.6668345063420702  0.5000000000000000
  0.9337453836105070  0.8669108885684338  0.5000000000000000
 
  0.00000000E+00  0.00000000E+00  0.00000000E+00
  0.00000000E+00  0.00000000E+00  0.00000000E+00
  0.00000000E+00  0.00000000E+00  0.00000000E+00
  0.00000000E+00  0.00000000E+00  0.00000000E+00
  0.00000000E+00  0.00000000E+00  0.00000000E+00
  0.00000000E+00  0.00000000E+00  0.00000000E+00
  0.00000000E+00  0.00000000E+00  0.00000000E+00
  0.00000000E+00  0.00000000E+00  0.00000000E+00
  0.00000000E+00  0.00000000E+00  0.00000000E+00
  0.00000000E+00  0.00000000E+00  0.00000000E+00
  0.00000000E+00  0.00000000E+00  0.00000000E+00
  0.00000000E+00  0.00000000E+00  0.00000000E+00
  0.00000000E+00  0.00000000E+00  0.00000000E+00
  0.00000000E+00  0.00000000E+00  0.00000000E+00
  0.00000000E+00  0.00000000E+00  0.00000000E+00
  0.00000000E+00  0.00000000E+00  0.00000000E+00
  0.00000000E+00  0.00000000E+00  0.00000000E+00
  0.00000000E+00  0.00000000E+00  0.00000000E+00
  0.00000000E+00  0.00000000E+00  0.00000000E+00
  0.00000000E+00  0.00000000E+00  0.00000000E+00
  0.00000000E+00  0.00000000E+00  0.00000000E+00
  0.00000000E+00  0.00000000E+00  0.00000000E+00
  0.00000000E+00  0.00000000E+00  0.00000000E+00
  0.00000000E+00  0.00000000E+00  0.00000000E+00
  0.00000000E+00  0.00000000E+00  0.00000000E+00
  0.00000000E+00  0.00000000E+00  0.00000000E+00
  0.00000000E+00  0.00000000E+00  0.00000000E+00
  0.00000000E+00  0.00000000E+00  0.00000000E+00
  0.00000000E+00  0.00000000E+00  0.00000000E+00
  0.00000000E+00  0.00000000E+00  0.00000000E+00
  0.00000000E+00  0.00000000E+00  0.00000000E+00
  0.00000000E+00  0.00000000E+00  0.00000000E+00
  0.00000000E+00  0.00000000E+00  0.00000000E+00
  0.00000000E+00  0.00000000E+00  0.00000000E+00
  0.00000000E+00  0.00000000E+00  0.00000000E+00
  0.00000000E+00  0.00000000E+00  0.00000000E+00
  0.00000000E+00  0.00000000E+00  0.00000000E+00
  0.00000000E+00  0.00000000E+00  0.00000000E+00
  0.00000000E+00  0.00000000E+00  0.00000000E+00
  0.00000000E+00  0.00000000E+00  0.00000000E+00
  0.00000000E+00  0.00000000E+00  0.00000000E+00
  0.00000000E+00  0.00000000E+00  0.00000000E+00
  0.00000000E+00  0.00000000E+00  0.00000000E+00
  0.00000000E+00  0.00000000E+00  0.00000000E+00
  0.00000000E+00  0.00000000E+00  0.00000000E+00
  0.00000000E+00  0.00000000E+00  0.00000000E+00
  0.00000000E+00  0.00000000E+00  0.00000000E+00
  0.00000000E+00  0.00000000E+00  0.00000000E+00
  0.00000000E+00  0.00000000E+00  0.00000000E+00
