S  Pb                                   
   1.00000000000000     
     4.1822670133276212    0.0000000000000000    0.0000000000000000
     0.0000000000000000    8.4228359831610859    0.0000000000000000
     0.0000000000000000    0.0000000000000000   27.8166048499999974
   S    Pb
     6     6
Direct
  0.4999999955289250  0.3925917744248711  0.6048176745728395
  0.4999999884559282  0.3925917212153515  0.3951823982007223
  0.4999999776072221  0.8925918748259517  0.3951823913967463
  0.5000000059554949  0.8925918497856579  0.6048176673514982
 -0.0000000007881133  0.6519098868102312  0.5000000634883927
  0.0000000025657529  0.1519098701701019  0.5000000621956742
 -0.0000000021821053  0.1624339246494775  0.6040966979584509
  0.0000000223001584  0.1624340396198262  0.3959032443788821
  0.0000000013565869  0.6624337972845465  0.3959032511988854
  0.0000000101163467  0.6624339005765459  0.6040966910115627
  0.4999999980408544  0.4041609247031988  0.4999999145897406
  0.4999999929964077  0.9041608006902833  0.4999999443755889
 
  0.00000000E+00  0.00000000E+00  0.00000000E+00
  0.00000000E+00  0.00000000E+00  0.00000000E+00
  0.00000000E+00  0.00000000E+00  0.00000000E+00
  0.00000000E+00  0.00000000E+00  0.00000000E+00
  0.00000000E+00  0.00000000E+00  0.00000000E+00
  0.00000000E+00  0.00000000E+00  0.00000000E+00
  0.00000000E+00  0.00000000E+00  0.00000000E+00
  0.00000000E+00  0.00000000E+00  0.00000000E+00
  0.00000000E+00  0.00000000E+00  0.00000000E+00
  0.00000000E+00  0.00000000E+00  0.00000000E+00
  0.00000000E+00  0.00000000E+00  0.00000000E+00
  0.00000000E+00  0.00000000E+00  0.00000000E+00
