S  Pb
   1.000
    4.1822670133276212    0.0000000000000000    0.0000000000000000
0.0000000000000000 8.4228359831610868 0.0000000000000000
    0.0000000000000000    0.0000000000000000   27.8166048499999974
   S    Pb
    6    6
Direct
    0.4999999747721189    0.3889942446424596    0.6042238865524038     S1
    0.5000000236578793    0.3889942506008209    0.3957761161286120     S2
    0.4999999749102795    0.8889942508137700    0.3957761159968793     S3
    0.5000000238090245    0.8889942446462701    0.6042238864371616     S4
   -0.0000000006595099    0.6513646412285320    0.4999999979905898     S5
   -0.0000000006404773    0.1513646412090959    0.4999999980874721     S6
    0.9999997395670633    0.1659387035928991    0.6038856423550752    Pb1
    0.0000002589667324    0.1659387049966074    0.3961143580326913    Pb2
    0.9999997395891547    0.6659387047697048    0.3961143579081810    Pb3
    0.0000002593390252    0.6659387036016668    0.6038856422535930    Pb4
    0.4999999992842235    0.4048916373334562    0.4999999994998078    Pb5
    0.4999999993579451    0.9048916373207541    0.4999999994765175    Pb6
