&inputpp
  outdir     =  './wfc-out'
  prefix     =  'si'
  seedname   =  'ex1'
  write_amn  =  .true.
  write_mmn  =  .true.
  write_unk  =  .true.
/
