K-Spacing From VASPKIT
0
Gamma
15  15   1
0.0  0.0  0.0
