WS2
1.0
        3.1842229366         0.0000000000         0.0000000000
       -1.5921114683         2.7576179544         0.0000000000
        0.0000000000         0.0000000000        22.0000000000
W    S
1    2
Cartesian
0.000000000         1.838412024         3.244570494
1.592111516         0.919206012         1.684645100
1.592111516         0.919206012         4.804495887