Automatic mesh
0              ! number of k-points = 0 -> automatic generation scheme 
Gamma          ! generate a Gamma centered grid
8  8  1        ! subdivisions N_1, N_2 and N_3 along recipr. latt. vectors
0.5 0.5 0.       ! optional shift of the mesh (s_1, s_2, s_3)
