Automatic
0
Monkhorst-Pack
15 15 1
0    0    0
