&inputpp
   outdir='wfc-out/'
   prefix = 'pb'
   seedname = 'ex3'
   write_amn = .true.
   write_mmn = .true.
   write_unk = .true.
/

