Mo Te                                   
   1.00000000000000     
     6.3940267105187152    0.0000000000000000    0.0000000000000000
     0.0000000000000000    3.4074920172550214    0.0000000000000000
     0.0000000000000000    0.0000000000000000   28.0000000000000000
   Mo   Te
     2     4
Direct
  1.0139461319582199  1.0615675907126720  0.4961427526571797
  0.3792875314651966  0.5769981881935218  0.5028961527244333
  0.6313120628999437  1.0548935488517834  0.4449328286767656
  0.1258537394180602  0.5544626333851440  0.4257139086260240
  0.7468231481350478  0.6596559697019764  0.5552185969346413
  0.2479296437169111  0.1324867190678913  0.5750957815197959
 
             NaN             NaN             NaN
             NaN             NaN             NaN
             NaN             NaN             NaN
             NaN             NaN             NaN
             NaN             NaN             NaN
             NaN             NaN             NaN
