Generated by VASPKIT code               
   1.00000000000000     
     3.3635995388000000    0.0000000000000000    0.0000000000000000
     0.0000000000000000    5.8084480495189998    0.0000000000000000
     0.0000000000000000    0.0000000000000000   20.2525882720999988
   Mo   S    Te
     2     2     2
Direct
  0.4999999902719230  0.1668059439951839  0.5070490290088624
 -0.0000000108674292  0.6668060566597210  0.5070487708567658
  0.4999999860785505  0.8332533716366001  0.5798636188330785
 -0.0000000105821892  0.3332536962426496  0.5798637164571095
  0.4999999935594254  0.8332730563267061  0.4130874420146688
 -0.0000000084602853  0.3332739071391485  0.4130873048294978
 
  0.00000000E+00  0.00000000E+00  0.00000000E+00
  0.00000000E+00  0.00000000E+00  0.00000000E+00
  0.00000000E+00  0.00000000E+00  0.00000000E+00
  0.00000000E+00  0.00000000E+00  0.00000000E+00
  0.00000000E+00  0.00000000E+00  0.00000000E+00
  0.00000000E+00  0.00000000E+00  0.00000000E+00
