Se Sn                                   
   1.00000000000000     
     4.3777134034494658    0.0000062138715948    0.0000000000000000
     0.0000060631536394    4.3282616675499579    0.0000000000000000
     0.0000000000000000    0.0000000000000000   24.7585268899999988
   Se   Sn
     2     2
Direct
  0.0711258438029775  0.9999121084303071  0.4458270058633547
  0.5711504024375305  0.4999091909375155  0.5541750107238098
  0.1211709413716504  0.9999141609202082  0.5554000818351919
  0.6211830480953605  0.4999133248591066  0.4446036874630786
 
  0.00000000E+00  0.00000000E+00  0.00000000E+00
  0.00000000E+00  0.00000000E+00  0.00000000E+00
  0.00000000E+00  0.00000000E+00  0.00000000E+00
  0.00000000E+00  0.00000000E+00  0.00000000E+00
