&BANDS
    outdir  = './wfc-out'
    filband = 'bands'
/