Generated by VASPKIT code               
   1.00000000000000     
     3.3635995388000000    0.0000000000000000    0.0000000000000000
     0.0000000000000000    5.8084480495189998    0.0000000000000000
     0.0000000000000000    0.0000000000000000   20.2525882720999988
   Mo   S    Te
     2     2     2
Direct
  0.4999999902719239  0.1668059439951861  0.5070490290088614
  0.9999999891325686  0.6668060566597234  0.5070487708567626
  0.4999999860785493  0.8332533716366015  0.5798636188330804
  0.9999999894178089  0.3332536962426502  0.5798637164571119
  0.4999999935594275  0.8332730563267035  0.4130874420146711
  0.9999999915397169  0.3332739071391515  0.4130873048294958
 
  0.00000000E+00  0.00000000E+00  0.00000000E+00
  0.00000000E+00  0.00000000E+00  0.00000000E+00
  0.00000000E+00  0.00000000E+00  0.00000000E+00
  0.00000000E+00  0.00000000E+00  0.00000000E+00
  0.00000000E+00  0.00000000E+00  0.00000000E+00
  0.00000000E+00  0.00000000E+00  0.00000000E+00
