Si_2x2x2                                
   1.00000000000000     
    10.9374551773000004    0.0000000000000000    0.0000000000000000
     0.0000000000000000   10.9374551773000004    0.0000000000000000
     0.0000000000000000    0.0000000000000000   10.9374551773000004
   Si
    64
Direct
  0.2241199554688640  0.2302191519675722 -0.0276572097013612
  0.2289686232031176  0.2142213258745308  0.4547169462837751
  0.1747391069307501  0.6690402883230835 -0.0323337100343510
  0.2088165182095434  0.7324215874861038  0.5231908279085431
  0.7296696059671054  0.2360065489393334  0.0352222752615696
  0.7505166376096564  0.2562321018395515  0.4924922267354300
  0.6962933098295342  0.7593135762184438  0.0039208233769241
  0.7872119347401912  0.7582170293343636  0.4406130455292350
  0.3798989998153591  0.0006619530724473  0.2328293760127392
  0.2588771118881414 -0.0298450915570112  0.7619788696410906
  0.2321080102698785  0.5006043342319210  0.2354497009127722
  0.2389010253282113  0.4501289859451902  0.7113032568944757
  0.7238896030100213 -0.0158758207782218  0.3886079521777256
  0.7992155373255525  0.0595149097305980  0.8380614890348871
  0.7788202569717575  0.5475798092344923  0.2668809849373601
  0.7666847139878807  0.4712601122456682  0.7744913172644436
  0.0058297316664325  0.3132015599290499  0.2331807934752226
 -0.0072678719078036  0.2394628423679027  0.7475774858225253
  0.0177108228813859  0.7937878313876713  0.1645488994341545
 -0.0722765553332091  0.7909737368245847  0.7682725186111470
  0.4546567930492437  0.2313087794208905  0.2682373889446822
  0.5250377865205221  0.2012594029992567  0.7445164344765747
  0.4760930659250991  0.7330028639568037  0.2707969638598327
  0.4507260205360580  0.6910162378202541  0.7517253823530931
  0.0398410065129365 -0.0009260586667054  0.0574196291467042
  0.0127820773909502  0.0103442026763267  0.4966957674027204
 -0.0091809557920339  0.5214614809051605 -0.0426565069602104
 -0.0389556100441260  0.5133756146331599  0.4929674101117304
  0.5043836447453777 -0.0408552095493998  0.0253407178515763
  0.5384792271356162  0.0278205265321973  0.5850596024843480
  0.4702624747157266  0.4934968848773525 -0.0003992757493612
  0.5049455908444838  0.4743645370386475  0.4867279519769768
  0.1082246940102903  0.1406405492902333  0.3045580849956608
  0.1020343455400503  0.0967699664611431  0.8627155038555171
  0.0928578762418296  0.6561264681611466  0.3320581485915170
  0.0998079882123468  0.6269122959176299  0.7464641219971604
  0.5898251772237187  0.1532626070091987  0.4373972899605640
  0.6015599130642240  0.1050159914242086  0.9283597684309035
  0.6154463766861147  0.6250889272661936  0.3657759396984896
  0.6327750837369785  0.5878754391953978  0.8626538516783491
  0.1528008687255198  0.3980656607723140  0.0766022150440797
  0.1111032390623720  0.3587113978085283  0.5639329080143446
  0.2371425278646707  0.8740952783953444  0.0817244037050984
  0.0888364577870521  0.8684691604003235  0.6880591226081709
  0.6965697869313786  0.4914707400027603  0.0589646746939991
  0.6660618108852222  0.3864255401743987  0.6305827759528896
  0.5933566727683373  0.8847123970392632  0.2092263320538306
  0.6710746661378707  0.9056788931781956  0.7008512860357463
  0.4262787122397730  0.1577589444043441  0.0573576050873763
  0.3413114192676595  0.0851247238060261  0.5893432533970672
  0.3642490073094050  0.6237868170877023  0.1069273978043078
  0.3556961672527764  0.5962290376986699  0.5745000898219504
  0.8927017245360697  0.1339690974801839  0.1988072358306281
  0.8510408462579374  0.1118689220579547  0.6233613689888204
  0.8776058751170464  0.6642954265132088  0.1017625845572163
  0.8438853243642556  0.6183090610473535  0.6439324957547626
  0.3478811286053328  0.3855768806699234  0.3873227496417313
  0.3430062857243796  0.3462898130011380  0.8589519156059032
  0.4596284048886424  0.8746500687397839  0.4318794892596262
  0.4131321457457893  0.8796580401828997  0.8647990564141044
  0.8518657021963660  0.3899001201823756  0.3696373848986758
  0.8741352060309150  0.3584504262394309  0.9023608268080107
  0.9643068924133701  0.8839983008873874  0.3357179346400345
  0.8819994737700813  0.8980169722441190  0.9536328486964886
 
  0.64903092E-02 -0.30956250E-02 -0.41311768E-02
  0.58080477E-02 -0.16774682E-01  0.10210446E-01
 -0.96787598E-02 -0.32882134E-02 -0.63778016E-02
 -0.57930403E-02 -0.85774643E-03 -0.52555702E-02
  0.14098265E-03 -0.12178517E-02  0.12454343E-01
 -0.62163113E-02 -0.50761160E-03 -0.11116530E-01
 -0.29878624E-02  0.53876722E-03  0.13202605E-02
 -0.12001198E-02 -0.30573135E-02  0.54329367E-03
  0.23242499E-01 -0.18435966E-02  0.48513161E-02
  0.33811176E-02 -0.26717927E-02  0.12594157E-01
  0.57484452E-02  0.84024554E-02  0.72830637E-02
 -0.13697605E-02 -0.60831757E-02  0.10166492E-02
 -0.11602038E-01 -0.42132024E-02  0.16985103E-01
  0.10486926E-01  0.98892438E-02  0.52299615E-02
  0.66595305E-03  0.26398409E-02 -0.43929322E-03
 -0.67214136E-02  0.10705627E-02 -0.87982763E-02
 -0.29845853E-02  0.44704069E-02  0.40595462E-02
 -0.15443932E-04 -0.38536926E-02 -0.12357767E-02
  0.82266257E-02 -0.98502662E-02 -0.18732244E-01
 -0.10372504E-01  0.89777078E-02  0.64532833E-03
 -0.36843026E-02 -0.16021532E-01 -0.23641111E-02
  0.52829935E-02 -0.81492249E-02 -0.80713802E-02
  0.18441479E-02 -0.41408569E-02 -0.24903252E-03
 -0.10128316E-02  0.39632683E-03  0.92454804E-02
  0.56379537E-02  0.55781855E-02  0.32473324E-02
 -0.70219105E-03  0.17731679E-01  0.68340666E-02
  0.12521188E-02  0.51831556E-02 -0.15621431E-01
  0.32613478E-02  0.87668188E-02  0.24871271E-02
  0.41614472E-02 -0.31523612E-02  0.24459872E-02
  0.70081165E-02  0.71743094E-02  0.25130382E-01
  0.90037250E-02 -0.31613883E-02  0.89322251E-03
  0.43193703E-02 -0.59349602E-02  0.37705675E-03
 -0.81269977E-02 -0.10466838E-02  0.89068227E-03
 -0.52716146E-02  0.37070438E-02 -0.94129294E-02
 -0.96871422E-02  0.42762869E-02 -0.14515990E-02
 -0.11099580E-02 -0.19735094E-02 -0.11174584E-01
  0.38689837E-02  0.99169435E-02  0.82922202E-02
 -0.89659403E-02  0.21342278E-02 -0.57742833E-02
 -0.55641161E-02 -0.26747734E-02  0.22255207E-02
 -0.46777503E-02  0.13852229E-02  0.95058712E-02
 -0.15446806E-02  0.28223819E-02 -0.14055081E-01
 -0.10977004E-01 -0.90094700E-02 -0.59679407E-02
  0.19925089E-01 -0.85806269E-02 -0.87325698E-02
 -0.67553808E-02 -0.79702263E-02  0.70719583E-02
  0.39960406E-02  0.12453893E-01 -0.92609670E-02
 -0.11403825E-01 -0.24171814E-02  0.33640304E-02
 -0.63709735E-02 -0.30465972E-02  0.15721480E-01
  0.37101727E-02  0.12282840E-01  0.40965906E-02
  0.11480567E-01  0.10973803E-01 -0.34581697E-02
  0.92718966E-04  0.39027700E-02 -0.12691431E-01
 -0.54751453E-02  0.97175918E-03 -0.10052565E-01
  0.71358814E-02 -0.96674826E-02 -0.90365676E-02
 -0.64581954E-02  0.73725399E-02  0.50215615E-02
 -0.54144214E-02 -0.79373577E-02 -0.49925725E-02
 -0.26175017E-02  0.94240509E-02 -0.21156533E-02
 -0.10207027E-02  0.40303698E-02 -0.21435626E-02
  0.10295460E-01  0.35993432E-02  0.74711306E-02
 -0.63324244E-02 -0.92246293E-03 -0.73920407E-02
  0.20945712E-02  0.17144016E-02  0.75412874E-02
  0.26330024E-02 -0.22434579E-02 -0.11287551E-01
 -0.57772607E-02 -0.48219458E-02  0.51798754E-02
  0.93993800E-02 -0.10495071E-01  0.21005506E-02
  0.31914282E-02  0.32328104E-02  0.77109144E-02
 -0.58932219E-02 -0.43382081E-02 -0.26551050E-02
 
           1
   3.00000000000000     
 -0.98419411E+00  0.21527840E-01  0.22354687E-01 -0.10061354E+01
  0.22590016E+00  0.22937006E+00  0.97120966E+00
  0.23056169E+00  0.20962025E+00  0.45751754E+00
  0.17208435E+00  0.66813837E+00  0.96591694E+00
  0.20722756E+00  0.73218632E+00  0.52174929E+00
  0.72970828E+00  0.23567251E+00  0.38638338E-01
  0.74881159E+00  0.25609287E+00  0.48944311E+00
  0.69547378E+00  0.75946135E+00  0.42829535E-02
  0.78688276E+00  0.75737845E+00  0.44076206E+00
  0.38627411E+00  0.15627878E-03  0.23416003E+00
  0.25980451E+00  0.96942207E+00  0.76543328E+00
  0.23368473E+00  0.50290902E+00  0.23744735E+00
  0.23852532E+00  0.44846045E+00  0.71158211E+00
  0.72070732E+00  0.98296855E+00  0.39326674E+00
  0.80209196E+00  0.62227399E-01  0.83949600E+00
  0.77900292E+00  0.54830388E+00  0.26676049E+00
  0.76484112E+00  0.47155375E+00  0.77207807E+00
  0.50110992E-02  0.31442773E+00  0.23429427E+00
  0.99272789E+00  0.23840583E+00  0.74723853E+00
  0.19967278E-01  0.79108603E+00  0.15941089E+00
  0.92487840E+00  0.79343620E+00  0.76844952E+00
  0.45364624E+00  0.22691428E+00  0.26758894E+00
  0.52648684E+00  0.19902418E+00  0.74230256E+00
  0.47659889E+00  0.73186708E+00  0.27072866E+00
  0.45044821E+00  0.69112495E+00  0.75426130E+00
  0.41387423E-01  0.60396420E-03  0.58310330E-01
  0.12589476E-01  0.15207769E-01  0.49857026E+00
  0.99116248E+00  0.52288315E+00  0.95305874E+00
  0.96193893E+00  0.51578024E+00  0.49364960E+00
  0.50552507E+00  0.95828014E+00  0.26011620E-01
  0.54040146E+00  0.29788345E-01  0.59195254E+00
  0.47273208E+00  0.49262976E+00  0.99984572E+00
  0.50613034E+00  0.47273666E+00  0.48683137E+00
  0.10599557E+00  0.14035346E+00  0.30480239E+00
  0.10058841E+00  0.97786760E-01  0.86013366E+00
  0.90200821E-01  0.65729940E+00  0.33165999E+00
  0.99503541E-01  0.62637099E+00  0.74339908E+00
  0.59088639E+00  0.15598269E+00  0.43967174E+00
  0.59910067E+00  0.10560138E+00  0.92677596E+00
  0.61392021E+00  0.62435527E+00  0.36638637E+00
  0.63149204E+00  0.58825539E+00  0.86526119E+00
  0.15237718E+00  0.39883980E+00  0.72747091E-01
  0.10809239E+00  0.35624022E+00  0.56229598E+00
  0.24260772E+00  0.87174173E+00  0.79329175E-01
  0.86983546E-01  0.86628303E+00  0.68999887E+00
  0.69766585E+00  0.49488668E+00  0.56424513E-01
  0.66293389E+00  0.38576254E+00  0.63150549E+00
  0.59160920E+00  0.88387676E+00  0.21353853E+00
  0.67209232E+00  0.90904791E+00  0.70197493E+00
  0.42942768E+00  0.16076891E+00  0.56409075E-01
  0.34133685E+00  0.86195202E-01  0.58586216E+00
  0.36274725E+00  0.62405336E+00  0.10417011E+00
  0.35765345E+00  0.59357737E+00  0.57202148E+00
  0.89093033E+00  0.13599129E+00  0.20018458E+00
  0.84955574E+00  0.10969181E+00  0.62199197E+00
  0.87688793E+00  0.66688032E+00  0.10118229E+00
  0.84360536E+00  0.61941454E+00  0.64334454E+00
  0.35070504E+00  0.38656413E+00  0.38937198E+00
  0.34126939E+00  0.34603679E+00  0.85692438E+00
  0.46020292E+00  0.87512031E+00  0.43394797E+00
  0.41385434E+00  0.87904269E+00  0.86170303E+00
  0.85028108E+00  0.38857752E+00  0.37105816E+00
  0.87671333E+00  0.35557177E+00  0.90293698E+00
  0.96518226E+00  0.88488502E+00  0.33783294E+00
  0.88038304E+00  0.89682706E+00  0.95290459E+00
  0.00000000E+00  0.00000000E+00  0.00000000E+00
  0.00000000E+00  0.00000000E+00  0.00000000E+00
  0.00000000E+00  0.00000000E+00  0.00000000E+00
  0.00000000E+00  0.00000000E+00  0.00000000E+00
  0.00000000E+00  0.00000000E+00  0.00000000E+00
  0.00000000E+00  0.00000000E+00  0.00000000E+00
  0.00000000E+00  0.00000000E+00  0.00000000E+00
  0.00000000E+00  0.00000000E+00  0.00000000E+00
  0.00000000E+00  0.00000000E+00  0.00000000E+00
  0.00000000E+00  0.00000000E+00  0.00000000E+00
  0.00000000E+00  0.00000000E+00  0.00000000E+00
  0.00000000E+00  0.00000000E+00  0.00000000E+00
  0.00000000E+00  0.00000000E+00  0.00000000E+00
  0.00000000E+00  0.00000000E+00  0.00000000E+00
  0.00000000E+00  0.00000000E+00  0.00000000E+00
  0.00000000E+00  0.00000000E+00  0.00000000E+00
  0.00000000E+00  0.00000000E+00  0.00000000E+00
  0.00000000E+00  0.00000000E+00  0.00000000E+00
  0.00000000E+00  0.00000000E+00  0.00000000E+00
  0.00000000E+00  0.00000000E+00  0.00000000E+00
  0.00000000E+00  0.00000000E+00  0.00000000E+00
  0.00000000E+00  0.00000000E+00  0.00000000E+00
  0.00000000E+00  0.00000000E+00  0.00000000E+00
  0.00000000E+00  0.00000000E+00  0.00000000E+00
  0.00000000E+00  0.00000000E+00  0.00000000E+00
  0.00000000E+00  0.00000000E+00  0.00000000E+00
  0.00000000E+00  0.00000000E+00  0.00000000E+00
  0.00000000E+00  0.00000000E+00  0.00000000E+00
  0.00000000E+00  0.00000000E+00  0.00000000E+00
  0.00000000E+00  0.00000000E+00  0.00000000E+00
  0.00000000E+00  0.00000000E+00  0.00000000E+00
  0.00000000E+00  0.00000000E+00  0.00000000E+00
  0.00000000E+00  0.00000000E+00  0.00000000E+00
  0.00000000E+00  0.00000000E+00  0.00000000E+00
  0.00000000E+00  0.00000000E+00  0.00000000E+00
  0.00000000E+00  0.00000000E+00  0.00000000E+00
  0.00000000E+00  0.00000000E+00  0.00000000E+00
  0.00000000E+00  0.00000000E+00  0.00000000E+00
  0.00000000E+00  0.00000000E+00  0.00000000E+00
  0.00000000E+00  0.00000000E+00  0.00000000E+00
  0.00000000E+00  0.00000000E+00  0.00000000E+00
  0.00000000E+00  0.00000000E+00  0.00000000E+00
  0.00000000E+00  0.00000000E+00  0.00000000E+00
  0.00000000E+00  0.00000000E+00  0.00000000E+00
  0.00000000E+00  0.00000000E+00  0.00000000E+00
  0.00000000E+00  0.00000000E+00  0.00000000E+00
  0.00000000E+00  0.00000000E+00  0.00000000E+00
  0.00000000E+00  0.00000000E+00  0.00000000E+00
  0.00000000E+00  0.00000000E+00  0.00000000E+00
  0.00000000E+00  0.00000000E+00  0.00000000E+00
  0.00000000E+00  0.00000000E+00  0.00000000E+00
  0.00000000E+00  0.00000000E+00  0.00000000E+00
  0.00000000E+00  0.00000000E+00  0.00000000E+00
  0.00000000E+00  0.00000000E+00  0.00000000E+00
  0.00000000E+00  0.00000000E+00  0.00000000E+00
  0.00000000E+00  0.00000000E+00  0.00000000E+00
  0.00000000E+00  0.00000000E+00  0.00000000E+00
  0.00000000E+00  0.00000000E+00  0.00000000E+00
  0.00000000E+00  0.00000000E+00  0.00000000E+00
  0.00000000E+00  0.00000000E+00  0.00000000E+00
  0.00000000E+00  0.00000000E+00  0.00000000E+00
  0.00000000E+00  0.00000000E+00  0.00000000E+00
  0.00000000E+00  0.00000000E+00  0.00000000E+00
  0.00000000E+00  0.00000000E+00  0.00000000E+00
  0.00000000E+00  0.00000000E+00  0.00000000E+00
  0.00000000E+00  0.00000000E+00  0.00000000E+00
  0.00000000E+00  0.00000000E+00  0.00000000E+00
  0.00000000E+00  0.00000000E+00  0.00000000E+00
  0.00000000E+00  0.00000000E+00  0.00000000E+00
  0.00000000E+00  0.00000000E+00  0.00000000E+00
  0.00000000E+00  0.00000000E+00  0.00000000E+00
  0.00000000E+00  0.00000000E+00  0.00000000E+00
  0.00000000E+00  0.00000000E+00  0.00000000E+00
  0.00000000E+00  0.00000000E+00  0.00000000E+00
  0.00000000E+00  0.00000000E+00  0.00000000E+00
  0.00000000E+00  0.00000000E+00  0.00000000E+00
  0.00000000E+00  0.00000000E+00  0.00000000E+00
  0.00000000E+00  0.00000000E+00  0.00000000E+00
  0.00000000E+00  0.00000000E+00  0.00000000E+00
  0.00000000E+00  0.00000000E+00  0.00000000E+00
  0.00000000E+00  0.00000000E+00  0.00000000E+00
  0.00000000E+00  0.00000000E+00  0.00000000E+00
  0.00000000E+00  0.00000000E+00  0.00000000E+00
  0.00000000E+00  0.00000000E+00  0.00000000E+00
  0.00000000E+00  0.00000000E+00  0.00000000E+00
  0.00000000E+00  0.00000000E+00  0.00000000E+00
  0.00000000E+00  0.00000000E+00  0.00000000E+00
  0.00000000E+00  0.00000000E+00  0.00000000E+00
  0.00000000E+00  0.00000000E+00  0.00000000E+00
  0.00000000E+00  0.00000000E+00  0.00000000E+00
  0.00000000E+00  0.00000000E+00  0.00000000E+00
  0.00000000E+00  0.00000000E+00  0.00000000E+00
  0.00000000E+00  0.00000000E+00  0.00000000E+00
  0.00000000E+00  0.00000000E+00  0.00000000E+00
  0.00000000E+00  0.00000000E+00  0.00000000E+00
  0.00000000E+00  0.00000000E+00  0.00000000E+00
  0.00000000E+00  0.00000000E+00  0.00000000E+00
  0.00000000E+00  0.00000000E+00  0.00000000E+00
  0.00000000E+00  0.00000000E+00  0.00000000E+00
  0.00000000E+00  0.00000000E+00  0.00000000E+00
  0.00000000E+00  0.00000000E+00  0.00000000E+00
  0.00000000E+00  0.00000000E+00  0.00000000E+00
  0.00000000E+00  0.00000000E+00  0.00000000E+00
  0.00000000E+00  0.00000000E+00  0.00000000E+00
  0.00000000E+00  0.00000000E+00  0.00000000E+00
  0.00000000E+00  0.00000000E+00  0.00000000E+00
  0.00000000E+00  0.00000000E+00  0.00000000E+00
  0.00000000E+00  0.00000000E+00  0.00000000E+00
  0.00000000E+00  0.00000000E+00  0.00000000E+00
  0.00000000E+00  0.00000000E+00  0.00000000E+00
  0.00000000E+00  0.00000000E+00  0.00000000E+00
  0.00000000E+00  0.00000000E+00  0.00000000E+00
  0.00000000E+00  0.00000000E+00  0.00000000E+00
  0.00000000E+00  0.00000000E+00  0.00000000E+00
  0.00000000E+00  0.00000000E+00  0.00000000E+00
  0.00000000E+00  0.00000000E+00  0.00000000E+00
  0.00000000E+00  0.00000000E+00  0.00000000E+00
  0.00000000E+00  0.00000000E+00  0.00000000E+00
  0.00000000E+00  0.00000000E+00  0.00000000E+00
  0.00000000E+00  0.00000000E+00  0.00000000E+00
  0.00000000E+00  0.00000000E+00  0.00000000E+00
  0.00000000E+00  0.00000000E+00  0.00000000E+00
  0.00000000E+00  0.00000000E+00  0.00000000E+00
  0.00000000E+00  0.00000000E+00  0.00000000E+00
  0.00000000E+00  0.00000000E+00  0.00000000E+00
  0.00000000E+00  0.00000000E+00  0.00000000E+00
  0.00000000E+00  0.00000000E+00  0.00000000E+00
  0.00000000E+00  0.00000000E+00  0.00000000E+00
