2H-MoS2                                 
1.0
        3.1829447746         0.0000000000         0.0000000000
       -1.0886312280         2.9909897171         0.0000000000
        0.0000000000         0.0000000000        20.0000000000
   Mo    S
    1    2
Direct
     0.333332986         0.666666985         0.499987543
     0.666666985         0.333332986         0.578166723
     0.666666985         0.333332986         0.421808362