 POSCAR with strain of -0.007           
   1.00000000000000     
     4.3494890892019997   -0.0164338378690000    0.0000000000000000
    -0.0160967919640000    4.2924778571899997    0.0000000000000000
     0.0000000000000000    0.0000000000000000   20.0000000000000000
   Sn   Se
     2     2
Direct
  0.5773410714823786  0.7454554850507173  0.5686926071006105
  0.0773410714823783  0.2454554850507176  0.4313073928993894
  0.0367629295176228  0.2545445149492823  0.5672472412736986
  0.5367629015176203  0.7545445149492827  0.4327527587263087
 
  0.00000000E+00  0.00000000E+00  0.00000000E+00
  0.00000000E+00  0.00000000E+00  0.00000000E+00
  0.00000000E+00  0.00000000E+00  0.00000000E+00
  0.00000000E+00  0.00000000E+00  0.00000000E+00
