2H-MoTe2 epX-0.040_epY--0.040_dG-0   
   1.00000000000000     
     6.3940267105187152    0.0000000000000000    0.0000000000000000
     0.0000000000000000    3.4074920172550214    0.0000000000000000
     0.0000000000000000    0.0000000000000000   20.0000000000000000
   Te   Mo
     4     2
Direct
  0.8352103821931337  0.5000000000000000  0.4097928345858444
  0.3352103821931337 -0.0000000000000000  0.4097928345858444
  0.8352103795496575  0.5000000000000000  0.5902133739987320
  0.3352103795496576 -0.0000000000000000  0.5902133739987320
  0.1629125512571916  0.5000000000000000  0.5000031194154209
  0.6629126102571858  0.0000000000000000  0.5000031194154209
 
  0.00000000E+00  0.00000000E+00  0.00000000E+00
  0.00000000E+00  0.00000000E+00  0.00000000E+00
  0.00000000E+00  0.00000000E+00  0.00000000E+00
  0.00000000E+00  0.00000000E+00  0.00000000E+00
  0.00000000E+00  0.00000000E+00  0.00000000E+00
  0.00000000E+00  0.00000000E+00  0.00000000E+00
