Generated by VASPKIT code               
   1.00000000000000     
     3.3635995388000000    0.0000000000000000    0.0000000000000000
     0.0000000000000000    5.8026221236920001    0.0000000000000000
     0.0000000000000000    0.0000000000000000   20.2525882720999988
   Mo   S    Te
     2     2     2
Direct
  0.4999999905564605  0.1668532650089416  0.5070512049477521
 -0.0000000111680201  0.6668531850418861  0.5070514029006756
  0.4999999854026019  0.8332271016461577  0.5798939857574972
 -0.0000000097878082  0.3332268869435054  0.5798939164654244
  0.4999999935204954  0.8332531271765418  0.4130546352442336
 -0.0000000085237345  0.3332524661829765  0.4130547366843997
 
  0.00000000E+00  0.00000000E+00  0.00000000E+00
  0.00000000E+00  0.00000000E+00  0.00000000E+00
  0.00000000E+00  0.00000000E+00  0.00000000E+00
  0.00000000E+00  0.00000000E+00  0.00000000E+00
  0.00000000E+00  0.00000000E+00  0.00000000E+00
  0.00000000E+00  0.00000000E+00  0.00000000E+00
