 POSCAR with strain of 0.003            
   1.00000000000000     
     4.3823567649389998    0.0000000000000000    0.0000000000000000
     0.0000000000000000    4.3032090518330000    0.0000000000000000
     0.0000000000000000    0.0000000000000000   20.0000000000000000
   Sn   Se
     2     2
Direct
  0.5816046668502234  0.7500000070870468  0.5686851563078246
  0.0816047003776579  0.2500000043010591  0.4313146897583437
  0.0324992636366590  0.2499999959431088  0.5670720403478637
  0.5324993431354599  0.7499999926687854  0.4329281135859752
 
  0.00000000E+00  0.00000000E+00  0.00000000E+00
  0.00000000E+00  0.00000000E+00  0.00000000E+00
  0.00000000E+00  0.00000000E+00  0.00000000E+00
  0.00000000E+00  0.00000000E+00  0.00000000E+00
