MoS2                                    
   1.00000000000000     
     3.1829447912543789    0.0000000000000000    0.0000000000000000
    -1.5914716615271329    2.7565114699290429    0.0000000000000000
     0.0000000000000000    0.0000000000000000   20.0000000000000000
   Mo   S 
     1     2
Direct
  0.3333329860000021  0.6666669849999991  0.4999875430000031
  0.6666669849999991  0.3333329860000021  0.5781667253938664
  0.6666669849999991  0.3333329860000021  0.4218083596061363
 
  0.00000000E+00  0.00000000E+00  0.00000000E+00
  0.00000000E+00  0.00000000E+00  0.00000000E+00
  0.00000000E+00  0.00000000E+00  0.00000000E+00
