SnSe-0.1
 1.0000000000000000
     4.2924778571900175    0.0000000000000000    0.0000000000000000
     0.0000000000000000    4.3823567649391526    0.0000000000000000
     0.0000000000000000    0.0000000000000000   20.0000000000000000
 Sn  Se 
   2   2
Direct
  0.7500000000000000  0.6812433581636116  0.5687431414167269
  0.2500000000000000  0.1812433581636115  0.4312568585832732
  0.2500000000000000  0.1328606428363896  0.5670738664356403
  0.7500000000000000  0.6328606148363873  0.4329261335643668
