 SnSe-Monolayer                         
   1.00000000000000     
     4.3998861919989096    0.0000000000000000    0.0000000000000000
     0.0000000000000000    4.2924778571900175    0.0000000000000000
     0.0000000000000000    0.0000000000000000   20.0000000000000000
   Sn   Se
     2     2
Direct
  0.5829026732922555  0.7500000000000000  0.5687782352232799
  0.0829026732922556  0.2500000000000000  0.4312217647767203
  0.0312013277077456  0.2500000000000000  0.5669671746116846
  0.5312012997077433  0.7500000000000000  0.4330328253883228
 
  0.00000000E+00  0.00000000E+00  0.00000000E+00
  0.00000000E+00  0.00000000E+00  0.00000000E+00
  0.00000000E+00  0.00000000E+00  0.00000000E+00
  0.00000000E+00  0.00000000E+00  0.00000000E+00
