Te Mo                                   
   1.00000000000000     
     6.3728926505998489    0.0000000000000000    0.0000000000000000
     0.0000000000000000    3.4483306868255768    0.0000000000000000
     0.0000000000000000    0.0000000000000000   28.0000000000000000
   Te   Mo
     4     2
Direct
  0.2591725012557661  0.0000000007463302  0.5737606084987390
  0.1033493820311047  0.5000000016046344  0.4262393907917292
  0.7507330527743133  0.5000000004452338  0.5528435583816732
  0.6117897958741528 -0.0000000000924117  0.4471564424524612
 -0.0000940867857199 -0.0000000010873674  0.4966637689877489
  0.3626165913057253  0.4999999983835808  0.5033362523162248
 
  0.00000000E+00  0.00000000E+00  0.00000000E+00
  0.00000000E+00  0.00000000E+00  0.00000000E+00
  0.00000000E+00  0.00000000E+00  0.00000000E+00
  0.00000000E+00  0.00000000E+00  0.00000000E+00
  0.00000000E+00  0.00000000E+00  0.00000000E+00
  0.00000000E+00  0.00000000E+00  0.00000000E+00
