5x5BN-1B                                
   1.00000000000000     
    12.5689447428411345    0.0000004026094148    0.0000000000000000
    -6.2844720232583322   10.8850256474286677    0.0000000000000000
     0.0000000000000000    0.0000000000000000   20.0000000000000000
   B    N 
    24    25
Direct
  0.0668676118447114  0.1330623095034142  0.5000000000000000
  0.0667330691734238  0.3333665803867131  0.5000000000000000
  0.0668676672447198  0.5338053592413055  0.5000000000000000
  0.0667601616451344  0.7335201314902652  0.5000000000000000
  0.0667601170451287  0.9332398899548627  0.5000000000000000
  0.2661969978542298  0.1323939577084651  0.5000000000000000
  0.2684857670267431  0.3332244656357097  0.5000000000000000
  0.2684858299267960  0.5352613928910768  0.5000000000000000
  0.2661970171542421  0.7338030128457692  0.5000000000000000
  0.2664798985097359  0.9332398453548626  0.5000000000000000
  0.4661947509587075  0.1330623472034120  0.5000000000000000
  0.4647387473089674  0.3332245654357144  0.5000000000000000
  0.4647386371089787  0.7315142000732091  0.5000000000000000
  0.4661946707587116  0.9331323397552842  0.5000000000000000
  0.6667118832954020  0.1333559152477013  0.5000000000000000
  0.6666334612132838  0.3333665687867122  0.5000000000000000
  0.6667754645642784  0.5352612826910783  0.5000000000000000
  0.6667755643642327  0.7315142629732090  0.5000000000000000
  0.6666334496132893  0.9332669378265798  0.5000000000000000
  0.8666440790523000  0.1333559359477012  0.5000000000000000
  0.8666440997522964  0.3332881467045899  0.5000000000000000
  0.8669376677965785  0.5338052790413024  0.5000000000000000
  0.8676060572915308  0.7338030321457655  0.5000000000000000
  0.8669377054965690  0.9331323951552852  0.5000000000000000
  0.1330891264315706  0.0662546233895047  0.5000000000000000
  0.1327974805900800  0.2664545354123388  0.5000000000000000
  0.1327974723900573  0.4663428461777517  0.5000000000000000
  0.1330890490315597  0.6668344758420659  0.5000000000000000
  0.1333333142000015  0.8666667008000033  0.5000000000000000
  0.3331655236579332  0.0662546616894990  0.5000000000000000
  0.3323879975970038  0.2647760909940062  0.5000000000000000
  0.3239269580767948  0.4619634039384079  0.5000000000000000
  0.3323881356969867  0.6676118943029996  0.5000000000000000
  0.3331655541579286  0.8669109659684292  0.5000000000000000
  0.5334637079089244  0.0667319094544595  0.5000000000000000
  0.5336570537222592  0.2664546382123402  0.5000000000000000
  0.5380364568616161  0.4619635731384077  0.5000000000000000
  0.5380366260615874  0.6760730719231792  0.5000000000000000
  0.5336571838222253  0.8672025426099085  0.5000000000000000
  0.7333902280402691  0.0667803880805412  0.5000000000000000
  0.7333901816402848  0.2666098483597301  0.5000000000000000
  0.7335453917876942  0.4663429762777500  0.5000000000000000
  0.7352239390060122  0.6676120324029986  0.5000000000000000
  0.7335454945876819  0.8672025344099042  0.5000000000000000
  0.9332681946455312  0.0667318123544604  0.5000000000000000
  0.9332196189194433  0.2666098019597263  0.5000000000000000
  0.9332680975455375  0.4665363220910763  0.5000000000000000
  0.9337453453105068  0.6668345063420702  0.5000000000000000
  0.9337453836105075  0.8669108885684335  0.5000000000000000
 
  0.00000000E+00  0.00000000E+00  0.00000000E+00
  0.00000000E+00  0.00000000E+00  0.00000000E+00
  0.00000000E+00  0.00000000E+00  0.00000000E+00
  0.00000000E+00  0.00000000E+00  0.00000000E+00
  0.00000000E+00  0.00000000E+00  0.00000000E+00
  0.00000000E+00  0.00000000E+00  0.00000000E+00
  0.00000000E+00  0.00000000E+00  0.00000000E+00
  0.00000000E+00  0.00000000E+00  0.00000000E+00
  0.00000000E+00  0.00000000E+00  0.00000000E+00
  0.00000000E+00  0.00000000E+00  0.00000000E+00
  0.00000000E+00  0.00000000E+00  0.00000000E+00
  0.00000000E+00  0.00000000E+00  0.00000000E+00
  0.00000000E+00  0.00000000E+00  0.00000000E+00
  0.00000000E+00  0.00000000E+00  0.00000000E+00
  0.00000000E+00  0.00000000E+00  0.00000000E+00
  0.00000000E+00  0.00000000E+00  0.00000000E+00
  0.00000000E+00  0.00000000E+00  0.00000000E+00
  0.00000000E+00  0.00000000E+00  0.00000000E+00
  0.00000000E+00  0.00000000E+00  0.00000000E+00
  0.00000000E+00  0.00000000E+00  0.00000000E+00
  0.00000000E+00  0.00000000E+00  0.00000000E+00
  0.00000000E+00  0.00000000E+00  0.00000000E+00
  0.00000000E+00  0.00000000E+00  0.00000000E+00
  0.00000000E+00  0.00000000E+00  0.00000000E+00
  0.00000000E+00  0.00000000E+00  0.00000000E+00
  0.00000000E+00  0.00000000E+00  0.00000000E+00
  0.00000000E+00  0.00000000E+00  0.00000000E+00
  0.00000000E+00  0.00000000E+00  0.00000000E+00
  0.00000000E+00  0.00000000E+00  0.00000000E+00
  0.00000000E+00  0.00000000E+00  0.00000000E+00
  0.00000000E+00  0.00000000E+00  0.00000000E+00
  0.00000000E+00  0.00000000E+00  0.00000000E+00
  0.00000000E+00  0.00000000E+00  0.00000000E+00
  0.00000000E+00  0.00000000E+00  0.00000000E+00
  0.00000000E+00  0.00000000E+00  0.00000000E+00
  0.00000000E+00  0.00000000E+00  0.00000000E+00
  0.00000000E+00  0.00000000E+00  0.00000000E+00
  0.00000000E+00  0.00000000E+00  0.00000000E+00
  0.00000000E+00  0.00000000E+00  0.00000000E+00
  0.00000000E+00  0.00000000E+00  0.00000000E+00
  0.00000000E+00  0.00000000E+00  0.00000000E+00
  0.00000000E+00  0.00000000E+00  0.00000000E+00
  0.00000000E+00  0.00000000E+00  0.00000000E+00
  0.00000000E+00  0.00000000E+00  0.00000000E+00
  0.00000000E+00  0.00000000E+00  0.00000000E+00
  0.00000000E+00  0.00000000E+00  0.00000000E+00
  0.00000000E+00  0.00000000E+00  0.00000000E+00
  0.00000000E+00  0.00000000E+00  0.00000000E+00
  0.00000000E+00  0.00000000E+00  0.00000000E+00
