 POSCAR with strain of -0.010           
   1.00000000000000     
     4.3823567649389998    0.0000000000000000    0.0000000000000000
     0.0000000000000000    4.2495530786179998    0.0000000000000000
     0.0000000000000000    0.0000000000000000   20.0000000000000000
   Sn   Se
     2     2
Direct
  0.5795397635831533  0.7500000023792213  0.5689511494083250
  0.0795397644869333  0.2499999990230952  0.4310488573494474
  0.0345642175643849  0.2499999993534615  0.5670612504966931
  0.5345642283655284  0.7499999992442221  0.4329387427455418
 
  0.00000000E+00  0.00000000E+00  0.00000000E+00
  0.00000000E+00  0.00000000E+00  0.00000000E+00
  0.00000000E+00  0.00000000E+00  0.00000000E+00
  0.00000000E+00  0.00000000E+00  0.00000000E+00
