SnSe-0.60                               
   1.00000000000000     
     4.2924778571900175    0.0000000000000000    0.0000000000000000
     0.0000000000000000    4.3823567649391526    0.0000000000000000
     0.0000000000000000    0.0000000000000000   20.0000000000000000
   Sn   Se
     2     2
Direct
  0.7500000000000000  0.5812433581636114  0.1687431414167264
  0.2500000000000000  0.0812433581636114  0.0312568585832764
  0.2500000000000000  0.0328606428363898  0.1670738664356435
  0.7500000000000000  0.5328606148363875  0.0329261335643665
 
  0.00000000E+00  0.00000000E+00  0.00000000E+00
  0.00000000E+00  0.00000000E+00  0.00000000E+00
  0.00000000E+00  0.00000000E+00  0.00000000E+00
  0.00000000E+00  0.00000000E+00  0.00000000E+00
