S  Pb                                   
   1.00000000000000     
     4.1822670133276212    0.0000000000000000    0.0000000000000000
     0.0000000000000000    8.4228359831610859    0.0000000000000000
     0.0000000000000000    0.0000000000000000   27.8166048499999974
   S    Pb
     6     6
Direct
  0.4999999955289240  0.3925917744248721  0.6048176745728426
  0.4999999884559259  0.3925917212153536  0.3951823982007241
  0.4999999776072244  0.8925918748259534  0.3951823913967445
  0.5000000059554921  0.8925918497856600  0.6048176673514973
  0.9999999992118873  0.6519098868102304  0.5000000634883932
  0.0000000025657556  0.1519098701701012  0.5000000621956744
  0.9999999978178948  0.1624339246494770  0.6040966979584539
  0.0000000223001564  0.1624340396198249  0.3959032443788786
  0.0000000013565895  0.6624337972845495  0.3959032511988880
  0.0000000101163451  0.6624339005765449  0.6040966910115628
  0.4999999980408560  0.4041609247031985  0.4999999145897434
  0.4999999929964076  0.9041608006902848  0.4999999443755883
 
  0.00000000E+00  0.00000000E+00  0.00000000E+00
  0.00000000E+00  0.00000000E+00  0.00000000E+00
  0.00000000E+00  0.00000000E+00  0.00000000E+00
  0.00000000E+00  0.00000000E+00  0.00000000E+00
  0.00000000E+00  0.00000000E+00  0.00000000E+00
  0.00000000E+00  0.00000000E+00  0.00000000E+00
  0.00000000E+00  0.00000000E+00  0.00000000E+00
  0.00000000E+00  0.00000000E+00  0.00000000E+00
  0.00000000E+00  0.00000000E+00  0.00000000E+00
  0.00000000E+00  0.00000000E+00  0.00000000E+00
  0.00000000E+00  0.00000000E+00  0.00000000E+00
  0.00000000E+00  0.00000000E+00  0.00000000E+00
