KPT-Resolved Value to Generate K-Mesh: 0.020
0
Monkhorst-Pack
   11 11 1
0.0  0.0  0.0
