&bands
   prefix  = 'pb'
   outdir = './wfc-out'
   filband = 'bands.dat'
   lsym = .false.
/
