&CONTROL
    calculation   = "scf"
    nstep         = 100
    pseudo_dir    = "./"
    outdir        = "./wfc-out"    
/

&SYSTEM
    ecutrho     =  500
    ecutwfc     =  60
    ibrav       =  0
    nat         =  32
    ntyp        =  3
    occupations = smearing
    smearing    = gaussian
    degauss     = 0.01
/

&ELECTRONS
    conv_thr         =  1.0D-10
    electron_maxstep =  200
    mixing_beta      =  7.00000e-01
/


K_POINTS (automatic)
 5  3  6  0 0 0

ATOMIC_SPECIES
Al     26.98154  Al.pz-n-rrkjus_psl.0.1.UPF
N      14.00674  N.pz-n-rrkjus_psl.0.1.UPF
B      10.81100  B.pz-n-rrkjus_psl.0.1.UPF

CELL_PARAMETERS (angstrom)
   6.4325   0.00000   0.0000
   0.0000   11.1416   0.0000
   0.0000   0.00000   5.23535

ATOMIC_POSITIONS (crystal)
Al      0.131673   0.156583   0.540925
N       0.131673   0.156583   0.917137
Al      0.131673   0.323249   0.040485
N       0.131673   0.323249   0.417577
Al      0.381673   0.406582   0.540925
N       0.381673   0.406582   0.917137
Al      0.381673   0.573248   0.040485
N       0.381673   0.573248   0.417577
Al      0.131673   0.656581   0.540925
N       0.131673   0.656581   0.917137
Al      0.131673   0.823247   0.040485
N       0.131673   0.823247   0.417577
Al      0.381673   0.906580   0.540925
N       0.381673   0.906580   0.917137
Al      0.381673   0.073250   0.040485
N       0.381673   0.073250   0.417577
Al      0.631673   0.156583   0.540925
N       0.631673   0.156583   0.917137
Al      0.631673   0.323249   0.040485
N       0.631673   0.323249   0.417577
B       0.881673   0.406582   0.540925
N       0.881673   0.406582   0.917137
Al      0.881673   0.573248   0.040485
N       0.881673   0.573248   0.417577
B       0.631673   0.656581   0.540925
N       0.631673   0.656581   0.917137
B       0.631673   0.823247   0.040485
N       0.631673   0.823247   0.417577
B       0.881673   0.906580   0.540925
N       0.881673   0.906580   0.917137
Al      0.881673   0.073250   0.040485
N       0.881673   0.073250   0.417577
