Te   Mo                                 
   1.00000000000000     
     6.3825749953003372    0.0000000000000000    0.0000000000000000
     0.1726195323432433    3.2923610562210435    0.0000000000000000
     0.0000000000000000    0.0000000000000000   28.0000000000000000
   Te   Mo
     4     2
Direct
  0.6471290257294033  0.0674493324951064  0.4408707147644902
  0.1520041069995754  0.5802089343784029  0.4246877595720973
  0.6916004642010055  0.0145179452583086  0.5581155250137323
  0.2024063857106643  0.1904867409054725  0.5790652097407279
  0.0284271591960871  0.0949086535221782  0.4943281284359641
  0.4077135471144912  0.5524384467308282  0.5029326556433319
 
             NaN             NaN             NaN
             NaN             NaN             NaN
             NaN             NaN             NaN
             NaN             NaN             NaN
             NaN             NaN             NaN
             NaN             NaN             NaN
