Te   Mo
1
   6.2604976284339200   0.0000000000000000   0.0000000000000000
   0.0000000000000000   3.4989007690664500   0.0000000000000000
   0.0000000000000000   0.0000000000000000  28.0000000000000000
Te   Mo
4  2  
Direct
  0.6392242508580750  0.0000000000462058  0.4413362792950230  
  0.1350040439365510  0.5000000008023170  0.4308777534646570  
  0.7086958828872650  0.2500050002226170  0.5586637211220440  
  0.2129156071279920  0.2500000003731650  0.5691222461805771  
  0.0000100000000000  0.0000050500000000  0.4983318764427720  
  0.4313083251528600  0.4999999991917900  0.5016681181070100  
