generated by phonopy
   1.0
     1.5911431666091973   -2.7559408066831548    0.0000000000000000
     1.5911431666091973    2.7559408066831548    0.0000000000000000
     0.0000000000000000    0.0000000000000000   14.4913947462910357
Mo S
   2    4
Direct
  0.3340073379649331  0.6666666666666643  0.2506740046315974
  0.6666666666666643  0.3333333333333357  0.7499999999999999
  0.6666666666666643  0.3333333333333357  0.3577018690976795
  0.3333333333333357  0.6666666666666643  0.8577018690976793
  0.6666666666666643  0.3333333333333357  0.1422981309023205
  0.3333333333333357  0.6666666666666643  0.6422981309023206
