B  O                                    
   1.00000000000000     
     6.6844658984002470    0.0000000000000000    0.0000000000000000
     0.0000000000000000    4.4344468463119435    0.0000000000000000
     0.0000000000000000    0.0000000000000000   23.7642002300000037
   B    O 
     4     6
Direct
  0.1703371411732064  0.3030061324441888  0.5267136499360348
  0.8362490604874750  0.3030050937060764  0.4732767002853535
  0.6703354415980769  0.8030055912706544  0.4732854016986039
  0.3362495431250920  0.8030066470133050  0.5267222196788097
  0.6864635222792899  0.5010097588773448  0.4597622472611107
  0.3201045643936311  0.5010110960903091  0.5402433976246570
  0.1864624382599587  0.0010119132573294  0.5402365982532729
  0.8201047085962614  0.0010111128286425  0.4597554991242916
  0.0033106604146482  0.4135108020257050  0.4999864411229566
  0.5033115551609271  0.9135118634382593  0.5000122243755314
 
  0.00000000E+00  0.00000000E+00  0.00000000E+00
  0.00000000E+00  0.00000000E+00  0.00000000E+00
  0.00000000E+00  0.00000000E+00  0.00000000E+00
  0.00000000E+00  0.00000000E+00  0.00000000E+00
  0.00000000E+00  0.00000000E+00  0.00000000E+00
  0.00000000E+00  0.00000000E+00  0.00000000E+00
  0.00000000E+00  0.00000000E+00  0.00000000E+00
  0.00000000E+00  0.00000000E+00  0.00000000E+00
  0.00000000E+00  0.00000000E+00  0.00000000E+00
  0.00000000E+00  0.00000000E+00  0.00000000E+00
