2H-MoS2                                 
   1.00000000000000     
     5.6787847664059239    0.0000000000000000    0.0000000000000000
    -1.9422587797103943    2.3845293147215139    0.0000000000000000
     0.0000000000000000    0.0000000000000000   20.0000000000000000
   Mo   S 
     1     2
Direct
  0.3170254806477929  0.6915444501472722  0.4999875430000031
  0.6748207376761038  0.3208942534263655  0.5796649495562949
  0.6748207376761038  0.3208942534263655  0.4203101354437078
 
  0.00000000E+00  0.00000000E+00  0.00000000E+00
  0.00000000E+00  0.00000000E+00  0.00000000E+00
  0.00000000E+00  0.00000000E+00  0.00000000E+00
