# System Setting
SYSTEM  = SnSe
PREC    = Accurate   # Accurate works best
GGA     = PE         # PE=PBE, 91=Perdew-Wang-91
ENCUT   = 600

# Type of Calculation
NSW     = 0         # Maximum Number of ionic relaxation steps to perform For SCF set it to 0
#ISIF    = 2          # Which type of run to perform 0=MD, 2=Atomic Relax, 3=Atomic and Unit cell relax
IBRION  = -1          # Determines how ions are moved -1=for scf only no update,0=MD, 2=conjugate gradientg algorithm
ISPIN   = 1          # 1=spin unpol, 2=spin pol
ISYM    = 0          # Symmetry Switched off

# Continue or Fresh
ISTART  = 1          # 0=Scratch, 1=Continuation Job only read wavecar file 
ICHARG  = 11          # 2=ch den from sup pos of atoms , 0=ch den from wave function 1=read CHGCAR file

# Stopping Criteria
EDIFF   = 1.0E-7     # Energy Convergence in electronic steps
EDIFFG  = -1.0E-3    # Force conv in ionic steps, -ve for force +ve for energy diffrence

# Smearing
ISMEAR  = -5           # 0=Gaussina Smearing, -5: Tetrahedron for DOS
#SIGMA   = 0.1         # Smearing width, ignored of Tereahedron 

# Dipole Correction
LDIPOL = .TRUE.
IDIPOL = 3
DIPOL  = 0.5 0.5 0.5

# Paralalisation 
NCORE = 24
# NBANDS  = 100

# Dos setting
EMIN    = -10
EMAX    = 10
NEDOS   = 1000       # No of grid points for DOS
LORBIT  = 11         # Ideal for projected-DOS

# Potentail setting
LVTOT   = .FALSE.    # Total pot with    Vxc will be written to LOCPOT file for .TRUE.
LVHAR   = .TRUE.     # Total pot without Vxc will be written to LOCPOT file for .TRUE.
