K-Spacing Value to Generate K-Mesh: 0.015
0
Monkhorst-Pack
  16   8   1
0.0  0.0  0.0
