SnSe-0.06
 1.0000000000000000
     4.2924778571900175    0.0000000000000000    0.0000000000000000
     0.0000000000000000    4.3823567649391526    0.0000000000000000
     0.0000000000000000    0.0000000000000000   20.0000000000000000
 Sn  Se 
   2   2
Direct
  0.7500000000000000  0.5812433581636114  0.6287431414167250
  0.2500000000000000  0.0812433581636114  0.4912568585832750
  0.2500000000000000  0.0328606428363898  0.6270738664356421
  0.7500000000000000  0.5328606148363875  0.4929261335643650
