 POSCAR with strain of -0.010           
   1.00000000000000     
     4.3385331972900003   -0.0219117838250000    0.0000000000000000
    -0.0214623892860000    4.2924778571899997    0.0000000000000000
     0.0000000000000000    0.0000000000000000   20.0000000000000000
   Sn   Se
     2     2
Direct
  0.5756353659179400  0.7434866078911536  0.5686837619773421
  0.0756353659179400  0.2434866078911535  0.4313162380226577
  0.0384686350820611  0.2565133921088464  0.5673029638051981
  0.5384686070820589  0.7565133921088464  0.4326970361948090
 
  0.00000000E+00  0.00000000E+00  0.00000000E+00
  0.00000000E+00  0.00000000E+00  0.00000000E+00
  0.00000000E+00  0.00000000E+00  0.00000000E+00
  0.00000000E+00  0.00000000E+00  0.00000000E+00
