Te   Mo                                 
   1.00000000000000     
     6.4709532178310427    0.0000000000000000    0.0000000000000000
     0.1686870274259663    3.3106413077098265    0.0000000000000000
     0.0000000000000000    0.0000000000000000   28.0000000000000000
   Te   Mo
     4     2
Direct
  0.6341930000101631  0.0316950763358390  0.4444847100257761
  0.1355160306238524  0.5417920516948923  0.4239768831450625
  0.7270609616884603  0.2937065872717174  0.5596667441493990
  0.2391818905143841  0.0602492934934425  0.5744093236903552
  0.0174717424280524  0.0515467071469569  0.4940379745902113
  0.3758569932299418  0.5210203373473637  0.5034243575695792
 
             NaN             NaN             NaN
             NaN             NaN             NaN
             NaN             NaN             NaN
             NaN             NaN             NaN
             NaN             NaN             NaN
             NaN             NaN             NaN
