Te   Mo
1
   6.3166951395168898   0.0000000000000000   0.0000000000000000
   0.0000000000000000   3.4736157279460098   0.0000000000000000
   0.0000000000000000   0.0000000000000000  28.0000000000000000
Te   Mo
4  2  
Direct
  0.6255070233661140  0.0000000000693088  0.4442463608737420  
  0.1191767129838280  0.5000000012034760  0.4285585721281930  
  0.7297144678307890  0.3750025003339250  0.5557536397518590  
  0.2360440541918790  0.1250000005597480  0.5714414273396580  
  0.0000100000000000  0.0000075250000000  0.4974978227152600  
  0.3969624582292930  0.4999999987876860  0.5025021852116170  
