S  Pb                                   
   1.00000000000000     
     4.1989960813809315    0.0000000000000000    0.0000000000000000
     0.0000000000000000    8.4907620797994827    0.0000000000000000
     0.0000000000000000    0.0000000000000000   27.8166048499999974
   S    Pb
     6     6
Direct
  0.4999999596047076  0.3895255864225433  0.6047222468034903
  0.5000000335885986  0.3895256842974533  0.3952777330902180
  0.4999999804677984  0.8895256093750206  0.3952777421287692
  0.5000000133728335  0.8895256863759968  0.6047222556803575
  0.0000000008657750  0.6516779525906315  0.4999999743575927
  0.0000000021438211  0.1516779518244249  0.4999999819991885
  0.9999999574336087  0.1652931729038016  0.6038996982899860
  0.0000000397437532  0.1652930168450482  0.3961003126381755
  0.9999999491012161  0.6652931628793155  0.3961003193763304
  0.0000000497727584  0.6652930093668559  0.6038996983656020
  0.5000000029924010  0.4048067850180956  0.5000000395157045
  0.5000000028661873  0.9048067468568490  0.4999999984735624
 
  0.00000000E+00  0.00000000E+00  0.00000000E+00
  0.00000000E+00  0.00000000E+00  0.00000000E+00
  0.00000000E+00  0.00000000E+00  0.00000000E+00
  0.00000000E+00  0.00000000E+00  0.00000000E+00
  0.00000000E+00  0.00000000E+00  0.00000000E+00
  0.00000000E+00  0.00000000E+00  0.00000000E+00
  0.00000000E+00  0.00000000E+00  0.00000000E+00
  0.00000000E+00  0.00000000E+00  0.00000000E+00
  0.00000000E+00  0.00000000E+00  0.00000000E+00
  0.00000000E+00  0.00000000E+00  0.00000000E+00
  0.00000000E+00  0.00000000E+00  0.00000000E+00
  0.00000000E+00  0.00000000E+00  0.00000000E+00
