Se Sn                                   
   1.00000000000000     
     4.3777134034494658    0.0000062138715948    0.0000000000000000
     0.0000060631536394    4.2939103844741648    0.0000000000000000
     0.0000000000000000    0.0000000000000000   24.7585268899999988
   Se   Sn
     2     2
Direct
  0.0725148040180557  0.9999164941868415  0.4458074494467468
  0.5725520825206445  0.4999057645908849  0.5541932409250876
  0.1197727054625730  0.9999149533336862  0.5555103543912310
  0.6197906437062457  0.4999115730357246  0.4444947411223694
 
  0.00000000E+00  0.00000000E+00  0.00000000E+00
  0.00000000E+00  0.00000000E+00  0.00000000E+00
  0.00000000E+00  0.00000000E+00  0.00000000E+00
  0.00000000E+00  0.00000000E+00  0.00000000E+00
