SnSe-0.10
 1.0000000000000000
     4.2924778571900175    0.0000000000000000    0.0000000000000000
     0.0000000000000000    4.3823567649391526    0.0000000000000000
     0.0000000000000000    0.0000000000000000   20.0000000000000000
 Sn  Se 
   2   2
Direct
  0.7500000000000000  0.5812433581636114  0.6687431414167251
  0.2500000000000000  0.0812433581636114  0.5312568585832750
  0.2500000000000000  0.0328606428363898  0.6670738664356421
  0.7500000000000000  0.5328606148363875  0.5329261335643650
