Si2                                     
   1.00000000000000     
     5.4682199999999996    0.0000000000000000    0.0000000000000000
     0.0000000000000000    5.4682199999999996    0.0000000000000000
     0.0000000000000000    0.0000000000000000    5.4682199999999996
   Si
     8
Direct
  0.5128012406230908  0.5089956146607122  0.0109595261346485
  0.4859917852610138  0.0013652248812193  0.4934841685228477
  0.0340165538328776  0.4891957529141138  0.5018890973662380
  0.9756099791156885  0.9991880355947629  0.0007817754223467
  0.2555383653181451  0.2418574965893825  0.7720958556897841
  0.2336080113821311  0.7582814883088105  0.2227617030770546
  0.7524642388199467  0.2627875250081360  0.2617780557475768
  0.7503410616251713  0.7386992476528036  0.7366217891745421
 
  0.00000000E+00  0.00000000E+00  0.00000000E+00
  0.00000000E+00  0.00000000E+00  0.00000000E+00
  0.00000000E+00  0.00000000E+00  0.00000000E+00
  0.00000000E+00  0.00000000E+00  0.00000000E+00
  0.00000000E+00  0.00000000E+00  0.00000000E+00
  0.00000000E+00  0.00000000E+00  0.00000000E+00
  0.00000000E+00  0.00000000E+00  0.00000000E+00
  0.00000000E+00  0.00000000E+00  0.00000000E+00
