K-Points are coarse here just for testing use sufficiently densed
 0
Monkhorst Pack
 3  3  3
 0  0  0

