Si2
1.0
5.46822 0 0
0 5.46822 0
0 0 5.46822
Si
8
Cartesian
  2.80411 2.7833 0.0599291
  2.65751 0.00746535 2.69848
  0.18601 2.67503 2.74444
  5.33485 5.46378 0.00427492
  1.39734 1.32253 4.22199
  1.27742 4.14645 1.21811
  4.11464 1.43698 1.43146
  4.10303 4.03937 4.02801
