 3x3-SnSe-with-Sn+Se-vacancy
   1.000
   12.9633064269999991    0.0000000000000000    0.0000000000000000
    0.0000000000000000   12.9312753676999996    0.0000000000000000
    0.0000000000000000    0.0000000000000000   20.0000000000000000
   Sn   Se
   17   17
Direct
    0.1786513630000000    0.2399779410000000    0.5654743915000000    Sn1
    0.0247559270000000    0.0847705160000000    0.4303434495000000    Sn2
    0.1786513630000000    0.5933553580000001    0.5654743915000000    Sn3
    0.0275072940000000    0.4166666570000000    0.4302766325000000    Sn4
    0.1922813650000000    0.9166666870000000    0.5676860215000000    Sn5
    0.0247559250000000    0.7485628130000000    0.4303434495000000    Sn6
    0.5289584400000000    0.2426677940000000    0.5659193995000000    Sn7
    0.3576347830000000    0.0866530540000000    0.4304052595000001    Sn8
    0.5289584400000000    0.5906655190000000    0.5659193995000000    Sn9
    0.5166755320000000    0.9166666870000000    0.5678840285000000   Sn10
    0.3576348130000000    0.7466802600000000    0.4304052595000001   Sn11
    0.8545799850000000    0.2549847070000000    0.5677476525000000   Sn12
    0.6846130490000000    0.0887881890000000    0.4307585065000000   Sn13
    0.8545799850000000    0.5783486370000001    0.5677476525000000   Sn14
    0.6871578690000000    0.4166666570000000    0.4304667115000000   Sn15
    0.8536205290000000    0.9166666870000000    0.5663224455000000   Sn16
    0.6846130490000000    0.7445451620000000    0.4307585065000000   Sn17
    0.0204956160000000    0.0887633640000000    0.5692949295000000    Se1
    0.1803303210000000    0.2476123870000000    0.4323474765000000    Se2
    0.0146407510000000    0.4166666570000000    0.5668563245000000    Se3
    0.1803303210000000    0.5857209560000000    0.4323474765000000    Se4
    0.0204956230000000    0.7445699569999999    0.5692949295000000    Se5
    0.1822851150000000    0.9166666870000000    0.4323393105000001    Se6
    0.3484349550000000    0.0824824720000000    0.5670407415000001    Se7
    0.5213865040000000    0.2445721330000000    0.4328356985000000    Se8
    0.5213865040000000    0.5887612100000000    0.4328356985000000    Se9
    0.3484349550000000    0.7508508560000000    0.5670406815000000   Se10
    0.5146101709999999    0.9166666870000000    0.4325027465000000   Se11
    0.6800817250000000    0.0848845620000000    0.5697233675000000   Se12
    0.8480908870000000    0.2506938280000000    0.4323876505000001   Se13
    0.6832125780000000    0.4166666570000000    0.5671832565000000   Se14
    0.8480908870000000    0.5826395150000000    0.4323877095000001   Se15
    0.6800817250000000    0.7484487890000000    0.5697233675000000   Se16
    0.8519043920000000    0.9166666870000000    0.4359047415000000   Se17
