Si2                                     
   1.00000000000000     
     5.4687299999999999    0.0000000000000000    0.0000000000000000
     0.0000000000000000    5.4687299999999999    0.0000000000000000
     0.0000000000000000    0.0000000000000000    5.4687299999999999
   Si
     8
Direct
  0.5002075436161562  0.4999643427267415  0.0001702036853146
  0.4998326851023904  0.9997714277355101  0.5002971439438397
  0.0002617060999555  0.5000722288355774  0.4997979421181853
  0.9999451426565216  0.9998006849853596  0.9995318840023160
  0.2498313136688068  0.2503232011819918  0.7503204583148175
  0.2497599991222827  0.7501156575658356  0.2498953139028615
  0.7500809145816305  0.2499446855119913  0.2499775999180827
  0.7500790860035167  0.7500059428788788  0.7500059428788788
 
  0.00000000E+00  0.00000000E+00  0.00000000E+00
  0.00000000E+00  0.00000000E+00  0.00000000E+00
  0.00000000E+00  0.00000000E+00  0.00000000E+00
  0.00000000E+00  0.00000000E+00  0.00000000E+00
  0.00000000E+00  0.00000000E+00  0.00000000E+00
  0.00000000E+00  0.00000000E+00  0.00000000E+00
  0.00000000E+00  0.00000000E+00  0.00000000E+00
  0.00000000E+00  0.00000000E+00  0.00000000E+00
