Si2                                     
   1.00000000000000     
     5.4687299999999999    0.0000000000000000    0.0000000000000000
     0.0000000000000000    5.4687299999999999    0.0000000000000000
     0.0000000000000000    0.0000000000000000    5.4687299999999999
   Si
     8
Direct
  0.4840739988991984  0.4983021652193500  0.9811729597182506
  0.5168713759867458  0.9967981597189848  0.4857069191567334
  0.9927149447860870  0.5024694947455828  0.5145399388889160
  0.0061208178132759  0.0035823125296019  0.0191686186738025
  0.2482514221766294  0.2246243643405350  0.7359514914797387
  0.2523968087654751  0.7315318181735080  0.2634414205857638
  0.7469247887535104  0.2743580319379433  0.2357658908009697
  0.7526445811001850  0.7683319527568528  0.7642505664020689
 
  0.00000000E+00  0.00000000E+00  0.00000000E+00
  0.00000000E+00  0.00000000E+00  0.00000000E+00
  0.00000000E+00  0.00000000E+00  0.00000000E+00
  0.00000000E+00  0.00000000E+00  0.00000000E+00
  0.00000000E+00  0.00000000E+00  0.00000000E+00
  0.00000000E+00  0.00000000E+00  0.00000000E+00
  0.00000000E+00  0.00000000E+00  0.00000000E+00
  0.00000000E+00  0.00000000E+00  0.00000000E+00
