Si2
1.0
5.46873 0 0
0 5.46873 0
0 0 5.46873
Si
8
Cartesian
  2.7355 2.73417 0.000930798
  2.73345 5.46748 2.73599
  0.0014312 2.73476 2.73326
  5.46843 5.46764 5.46617
  1.36626 1.36895 4.1033
  1.36587 4.10218 1.36661
  4.10199 1.36688 1.36706
  4.10198 4.10158 4.10158
