 POSCAR with strain of 0.003            
   1.00000000000000     
     4.3933126568520002    0.0000000000000000    0.0000000000000000
     0.0000000000000000    4.2924778571899997    0.0000000000000000
     0.0000000000000000    0.0000000000000000   20.0000000000000000
   Sn   Se
     2     2
Direct
  0.5822677232981867  0.7500000086945841  0.5687642475283742
  0.0822677197855348  0.2500000089086142  0.4312350162371543
  0.0318362298609618  0.2499999897349228  0.5670040460331779
  0.5318363010553168  0.7499999926618789  0.4329966902013005
 
  0.00000000E+00  0.00000000E+00  0.00000000E+00
  0.00000000E+00  0.00000000E+00  0.00000000E+00
  0.00000000E+00  0.00000000E+00  0.00000000E+00
  0.00000000E+00  0.00000000E+00  0.00000000E+00
