Te Mo 
 1.0000000000000000
     6.3728926505998489    0.0000000000000000    0.0000000000000000
     0.0000000000000000    3.4483306868255768    0.0000000000000000
     0.0000000000000000    0.0000000000000000   28.0000000000000000
 Te  Mo 
   4   2
Direct
  0.2592050778791320  0.0000000000000000  0.5737665258950141
  0.1033173422726488  0.5000000000000001  0.4262334741049859
  0.7506839347469058  0.5000000000000001  0.5528474290536486
  0.6118384624048764  0.0000000000000000  0.4471525709463516
  0.0000000000000000  0.0000000000000000  0.4966599169973577
  0.3625224191517840  0.5000000000000001  0.5033401044312155
