&CONTROL
    calculation   = "nscf"
    forc_conv_thr =  1.0D-04
    etot_conv_thr =  1.0D-6
    nstep         =  100
    pseudo_dir    =  "./"
    outdir        =  "./wfc-out"    
    lberry        = .true.
    gdir          = 3
    nppstr        = 6
/

&SYSTEM
    ecutrho     =  600
    ecutwfc     =  70
    ibrav       =  0
    nat         =  32
    ntyp        =  3
    occupations =  fixed
    degauss     =  0.00
/

&ELECTRONS
    conv_thr         =  1.0D-10
    electron_maxstep =  200
    mixing_beta      =  7.00000e-01
/

K_POINTS (automatic)
5 3 6 0 0 0

ATOMIC_SPECIES
Al     26.98154  Al.pz-n-rrkjus_psl.0.1.UPF
N      14.00674  N.pz-n-rrkjus_psl.0.1.UPF
B      10.81100  B.pz-n-rrkjus_psl.0.1.UPF


CELL_PARAMETERS (angstrom)
5.965205322 0.000000 0.000000
0.000000 10.218528636 0.000000
0.000000 0.000000 4.702787797

ATOMIC_POSITIONS (crystal)
Al            0.1181609223        0.1544233468        0.5361267238
N             0.1252997390        0.1516537145        0.9325458065
Al            0.1218145734        0.3282041665        0.0339602307
N             0.1013408626        0.3391115529        0.4339006729
Al            0.3873798541        0.4162917333        0.5373204563
N             0.3830935881        0.4115986976        0.9330903954
Al            0.3961533604        0.5858126906        0.0362862666
N             0.4130605657        0.5941807022        0.4344226076
Al            0.1225008553        0.6572126491        0.5390009301
N             0.1303286887        0.6549530685        0.9320474296
Al            0.1248008249        0.8247147174        0.0361176101
N             0.1055544006        0.8323220059        0.4357941124
Al            0.3970493200        0.8965671072        0.5328003741
N             0.4127226560        0.8916691784        0.9373694791
Al            0.3851032482        0.0674372649        0.0388284247
N             0.3803672813        0.0730831223        0.4314805303
Al            0.6382440301        0.1553979511        0.5396967163
N             0.6330130104        0.1569652479        0.9309172568
Al            0.6390300039        0.3272071454        0.0385825831
N             0.6594670796        0.3327298630        0.4342848539
B             0.8710667248        0.4136734829        0.5481609851
N             0.8772571689        0.4120162390        0.8790123363
Al            0.8706103958        0.5770392125        0.0359546324
N             0.8548465703        0.5662753285        0.4383338771
B             0.6426090904        0.6623924586        0.5385707751
N             0.6380838209        0.6765781515        0.8822735478
B             0.6442860446        0.8168714419        0.0202991483
N             0.6648990980        0.8091950789        0.3917375198
B             0.8748395296        0.8952947646        0.5369753878
N             0.8540519655        0.8917355814        0.8828992342
Al            0.8723733292        0.0589122777        0.0368257022
N             0.8741273977        0.0457600570        0.4333753936
