Mo Te                                   
   1.00000000000000     
     6.3899999999999997    0.0000000000000000    0.0000000000000000
     0.0000000000000000    3.3999999999999999    0.0000000000000000
     0.0000000000000000    0.0000000000000000   20.0000000000000000
   Mo   Te
     2     4
Direct
  0.0406928136373779  0.0256540102525591  0.4975665000847371
  0.4008513136483813  0.5252916546983357  0.5067243997235238
  0.6460555134688448  0.0142625512756496  0.4253447062107085
  0.1391221213978611  0.5216272433130769  0.3985264787974216
  0.7154194326548975  0.1817031961741549  0.5852674089207355
  0.2041995851561538  0.2314613437437529  0.6175543611319370
 
  0.00000000E+00  0.00000000E+00  0.00000000E+00
  0.00000000E+00  0.00000000E+00  0.00000000E+00
  0.00000000E+00  0.00000000E+00  0.00000000E+00
  0.00000000E+00  0.00000000E+00  0.00000000E+00
  0.00000000E+00  0.00000000E+00  0.00000000E+00
  0.00000000E+00  0.00000000E+00  0.00000000E+00
