KPOINTS created by Atomic Simulation Environment
0
Monkhorst-Pack
5 8 1 
0 0 0
