Mo Te 
 1.0000000000000000
     6.3899999999999997    0.0000000000000000    0.0000000000000000
     0.0000000000000000    3.3999999999999999    0.0000000000000000
     0.0000000000000000    0.0000000000000000   20.0000000000000000
 Mo  Te 
   2   4
Cartesian
  0.2600270791428242  0.0872236348587056  9.9513300016948012
  2.5614398942131511  1.7859916259743476 10.1344879944704669
  4.1282947310659139  0.0484926743372023  8.5068941242141793
  0.8889903557323506  1.7735326272644611  7.9705295759484267
  4.5715301746647850  0.6177908669921381 11.7053481784147611
  1.3048353491478315  0.7869685687287611 12.3510872226387551
