S  Pb                                   
   1.00000000000000     
     4.1488088772210006    0.0000000000000000    0.0000000000000000
     0.0000000000000000    8.4907620797994827    0.0000000000000000
     0.0000000000000000    0.0000000000000000   27.8166048499999974
   S    Pb
     6     6
Direct
  0.4999999747586799  0.3914110812162690  0.6048075153901777
  0.5000000222346301  0.3914111135160283  0.3951925175747419
  0.4999999736289098  0.8914110708739003  0.3951925195778969
  0.5000000185676257  0.8914110651915976  0.6048075169056233
  0.9999999978634122  0.6516902859424434  0.5000000099617452
  0.0000000042528328  0.1516902909675650  0.5000000104270086
  0.9999999869330622  0.1636470842514299  0.6041240997947597
  0.0000000114237508  0.1636470634440599  0.3958758749499935
  0.9999999857396062  0.6636471270773114  0.3958758731225771
  0.0000000092180059  0.6636470962880807  0.6041241049472461
  0.5000000042613735  0.4043155204095186  0.4999999819984993
  0.5000000030715768  0.9043155655778605  0.4999999760687217
 
  0.00000000E+00  0.00000000E+00  0.00000000E+00
  0.00000000E+00  0.00000000E+00  0.00000000E+00
  0.00000000E+00  0.00000000E+00  0.00000000E+00
  0.00000000E+00  0.00000000E+00  0.00000000E+00
  0.00000000E+00  0.00000000E+00  0.00000000E+00
  0.00000000E+00  0.00000000E+00  0.00000000E+00
  0.00000000E+00  0.00000000E+00  0.00000000E+00
  0.00000000E+00  0.00000000E+00  0.00000000E+00
  0.00000000E+00  0.00000000E+00  0.00000000E+00
  0.00000000E+00  0.00000000E+00  0.00000000E+00
  0.00000000E+00  0.00000000E+00  0.00000000E+00
  0.00000000E+00  0.00000000E+00  0.00000000E+00
