S  Pb                                   
   1.00000000000000     
     4.1488088772210006    0.0000000000000000    0.0000000000000000
     0.0000000000000000    8.4907620797994827    0.0000000000000000
     0.0000000000000000    0.0000000000000000   27.8166048499999974
   S    Pb
     6     6
Direct
  0.4999999747586824  0.3914110812162667  0.6048075153901800
  0.5000000222346316  0.3914111135160273  0.3951925175747446
  0.4999999736289063  0.8914110708738983  0.3951925195778971
  0.5000000185676226  0.8914110651915942  0.6048075169056207
 -0.0000000021365913  0.6516902859424430  0.5000000099617421
  0.0000000042528316  0.1516902909675620  0.5000000104270058
 -0.0000000130669406  0.1636470842514288  0.6041240997947580
  0.0000000114237525  0.1636470634440599  0.3958758749499931
 -0.0000000142603969  0.6636471270773111  0.3958758731225741
  0.0000000092180090  0.6636470962880782  0.6041241049472473
  0.5000000042613754  0.4043155204095156  0.4999999819985002
  0.5000000030715770  0.9043155655778582  0.4999999760687215
 
  0.00000000E+00  0.00000000E+00  0.00000000E+00
  0.00000000E+00  0.00000000E+00  0.00000000E+00
  0.00000000E+00  0.00000000E+00  0.00000000E+00
  0.00000000E+00  0.00000000E+00  0.00000000E+00
  0.00000000E+00  0.00000000E+00  0.00000000E+00
  0.00000000E+00  0.00000000E+00  0.00000000E+00
  0.00000000E+00  0.00000000E+00  0.00000000E+00
  0.00000000E+00  0.00000000E+00  0.00000000E+00
  0.00000000E+00  0.00000000E+00  0.00000000E+00
  0.00000000E+00  0.00000000E+00  0.00000000E+00
  0.00000000E+00  0.00000000E+00  0.00000000E+00
  0.00000000E+00  0.00000000E+00  0.00000000E+00
