Te   Mo                                 
   1.00000000000000     
     6.3327210120050212    0.0000000000000000    0.0000000000000000
     0.1558909166396058    3.3580293451633185    0.0000000000000000
     0.0000000000000000    0.0000000000000000   28.0000000000000000
   Te   Mo
     4     2
Direct
  0.6560100468725615  0.0296755401046950  0.4381099416130304
  0.1568724317097686  0.5194304963352736  0.4302721274378413
  0.6722257001676334  0.0100967852424302  0.5613640570818750
  0.1709930935544124  0.4083575399846057  0.5707175458600768
  0.0100886843960513  0.0055889594001069  0.4988793447206639
  0.4630907325094671  0.5268607322231852  0.5006569764568564
 
             NaN             NaN             NaN
             NaN             NaN             NaN
             NaN             NaN             NaN
             NaN             NaN             NaN
             NaN             NaN             NaN
             NaN             NaN             NaN
