Te   Mo
1
   6.2043001173509600   0.0000000000000000   0.0000000000000000
   0.0000000000000000   3.5241858101868799   0.0000000000000000
   0.0000000000000000   0.0000000000000000  28.0000000000000000
Te   Mo
4  2  
Direct
  0.6529414783500350  0.0000000000231029  0.4384261977163040  
  0.1508313748892730  0.5000000004011590  0.4331969348011210  
  0.6876772979437410  0.1250075001113080  0.5615738024922300  
  0.1897871600641040  0.3750000001865830  0.5668030650214960  
  0.0000100000000000  0.0000025750000000  0.4991659301702830  
  0.4656541920764270  0.4999999995958950  0.5008340510024020  
