&CONTROL
    calculation   = "bands"
    pseudo_dir    = "./"
    outdir        = "./wfc-out"  
/

&SYSTEM
    a           =  4.08362
    c           =  25.41
    degauss     =  0.01
    ecutrho     =  600
    ecutwfc     =  60
    ibrav       = 4
    nat         = 4
    ntyp        = 2
    occupations = "smearing"
    smearing    = "mv"
/

&ELECTRONS
    conv_thr         =  1.00000e-8
    mixing_beta      =  7.00000e-01
/

K_POINTS (crystal_b)
4
   0.0000000000     0.0000000000     0.0000000000  20  ! Gamma
   0.3333333333     0.3333333333     0.0000000000  20  ! K
   0.5000000000     0.0000000000     0.0000000000  20  ! M
   0.0000000000     0.0000000000     0.0000000000  20  ! Gamma


ATOMIC_SPECIES
    In    114.81800  In.pbe-dn-kjpaw_psl.1.0.0.UPF
    Se     78.96000  Se.pbe-dn-kjpaw_psl.1.0.0.UPF

ATOMIC_POSITIONS (crystal)
In 0.333333 0.666667 0.5555586770
In 0.333333 0.666667 0.4444413836
Se 0.666667 0.333333 0.3935097719
Se 0.666667 0.333333 0.6064902280
