SnSe-0.09                               
   1.00000000000000     
     4.2924778571900175    0.0000000000000000    0.0000000000000000
     0.0000000000000000    4.3823567649391526    0.0000000000000000
     0.0000000000000000    0.0000000000000000   20.0000000000000000
   Sn   Se
     2     2
Direct
  0.7500000000000000  0.5812433581636114  0.6587431414167284
  0.2500000000000000  0.0812433581636114  0.5212568585832784
  0.2500000000000000  0.0328606428363898  0.6570738664356455
  0.7500000000000000  0.5328606148363875  0.5229261335643685
 
  0.00000000E+00  0.00000000E+00  0.00000000E+00
  0.00000000E+00  0.00000000E+00  0.00000000E+00
  0.00000000E+00  0.00000000E+00  0.00000000E+00
  0.00000000E+00  0.00000000E+00  0.00000000E+00
