SnSe-0.08                               
   1.00000000000000     
     4.2924778571900175    0.0000000000000000    0.0000000000000000
     0.0000000000000000    4.3823567649391526    0.0000000000000000
     0.0000000000000000    0.0000000000000000   20.0000000000000000
   Sn   Se
     2     2
Direct
  0.7500000000000000  0.5812433581636114  0.6487431414167233
  0.2500000000000000  0.0812433581636114  0.5112568585832733
  0.2500000000000000  0.0328606428363898  0.6470738664356404
  0.7500000000000000  0.5328606148363875  0.5129261335643633
 
  0.00000000E+00  0.00000000E+00  0.00000000E+00
  0.00000000E+00  0.00000000E+00  0.00000000E+00
  0.00000000E+00  0.00000000E+00  0.00000000E+00
  0.00000000E+00  0.00000000E+00  0.00000000E+00
