Mo Te
   1.000
    6.3940267105187152    0.0000000000000000    0.0000000000000000
    0.0000000000000000    3.4074920172550214    0.0000000000000000
    0.0000000000000000    0.0000000000000000   28.0000000000000000
   Mo   Te
    2    4
Cartesian
    0.0000000000000000    0.0000000000000000   14.0000003024626558    Mo1
    3.1970137325068966    1.7037460086275107   14.0000003024626558    Mo2
    4.2986902884282117    0.0000000000000000   12.1957946058711251    Te1
    1.1016769331688514    1.7037460086275107   12.1957946058711251    Te2
    4.2986902715257527    0.0000000000000000   15.8042053941288732    Te3
    1.1016769162663951    1.7037460086275107   15.8042053941288732    Te4
