Mo Te 
 1.0000000000000000
     6.3940267105187152    0.0000000000000000    0.0000000000000000
     0.0000000000000000    3.4074920172550214    0.0000000000000000
     0.0000000000000000    0.0000000000000000   28.0000000000000000
   2   4
Cartesian
 -0.0000596696724892 -0.0000000002522156 13.9854031919074071
  3.0526559403445392  1.7037460083319536 14.0145935237962984
  4.2367297448369809 -0.0000000012223548 12.2481082694941925
  1.0304679876375611  1.7037460084440725 12.1517982067142469
  4.3818450162827212 -0.2839576679803565 15.7518904470895329
  1.1940703943928037  1.4197883423522624 15.8482069611993666
