 SnSe-Monolayer                         
   1.00000000000000     
     4.3648273378793956    0.0000000000000000    0.0000000000000000
     0.0000000000000000    4.2924778571900175    0.0000000000000000
     0.0000000000000000    0.0000000000000000   20.0000000000000000
   Sn   Se
     2     2
Direct
  0.5791709648308156  0.7500000000000000  0.5687134203711608
  0.0791709648308156  0.2500000000000000  0.4312865796288392
  0.0349330361691855  0.2500000000000000  0.5671649597611790
  0.5349330081691832  0.7500000000000000  0.4328350402388281
 
  0.00000000E+00  0.00000000E+00  0.00000000E+00
  0.00000000E+00  0.00000000E+00  0.00000000E+00
  0.00000000E+00  0.00000000E+00  0.00000000E+00
  0.00000000E+00  0.00000000E+00  0.00000000E+00
