 POSCAR with strain of -0.003           
   1.00000000000000     
     4.3714008730270004   -0.0054779459560000    0.0000000000000000
    -0.0053655973210000    4.2924778571899997    0.0000000000000000
     0.0000000000000000    0.0000000000000000   20.0000000000000000
   Sn   Se
     2     2
Direct
  0.5799518777012127  0.7487295729239408  0.5687115861889599
  0.0799518777012131  0.2487295729239409  0.4312884138110398
  0.0341521232987881  0.2512704270760590  0.5671429955652662
  0.5341520952987862  0.7512704270760592  0.4328570044347406
 
  0.00000000E+00  0.00000000E+00  0.00000000E+00
  0.00000000E+00  0.00000000E+00  0.00000000E+00
  0.00000000E+00  0.00000000E+00  0.00000000E+00
  0.00000000E+00  0.00000000E+00  0.00000000E+00
