Mo Te                                   
   1.00000000000000     
     6.3940267105187152    0.0000000000000000    0.0000000000000000
     0.0000000000000000    3.4074920172550214    0.0000000000000000
     0.0000000000000000    0.0000000000000000   28.0000000000000000
   Mo   Te
     2     4
Direct
  1.0328345727839612  1.0208844953539757  0.4962778552879636
  0.4084569237393491  0.4715921980832020  0.4992963396343501
  0.6447270389437726  1.0018115446288625  0.4411205502913363
  0.1375457889587139  0.5177447745785861  0.4252961292211331
  0.7141074155931439  0.7788226849030345  0.5579957757015434
  0.2074830058025873  0.2492349388993059  0.5800133710025391
 
             NaN             NaN             NaN
             NaN             NaN             NaN
             NaN             NaN             NaN
             NaN             NaN             NaN
             NaN             NaN             NaN
             NaN             NaN             NaN
