 SnSe-Monolayer                         
   1.00000000000000     
     4.4086509055287877    0.0000000000000000    0.0000000000000000
     0.0000000000000000    4.2924778571900175    0.0000000000000000
     0.0000000000000000    0.0000000000000000   20.0000000000000000
   Sn   Se
     2     2
Direct
  0.5837251057521773  0.7500000000000000  0.5687935863107372
  0.0837251057521772  0.2500000000000000  0.4312064136892626
  0.0303788952478240  0.2500000000000000  0.5669095729460556
  0.5303788672478216  0.7500000000000000  0.4330904270539513
 
  0.00000000E+00  0.00000000E+00  0.00000000E+00
  0.00000000E+00  0.00000000E+00  0.00000000E+00
  0.00000000E+00  0.00000000E+00  0.00000000E+00
  0.00000000E+00  0.00000000E+00  0.00000000E+00
