Diamond primitive cell                  
   1.00000000000000     
     2.5269291551754396    0.0000000000000000    0.0000000000000000
     1.2634645775877198    2.1883848419230132    0.0000000000000000
     1.2634645775877198    0.7294616139743378    2.0632290154054589
   C 
     2
Direct
  0.2500000000000000  0.2500000000000000  0.2500000000000000
  0.0000000000000000  0.0000000000000000  0.0000000000000000
 
  0.00000000E+00  0.00000000E+00  0.00000000E+00
  0.00000000E+00  0.00000000E+00  0.00000000E+00
