B  O                                    
   1.00000000000000     
     6.6314145817462764    0.0000000000000000    0.0000000000000000
     0.0000000000000000    4.4167090589266955    0.0000000000000000
     0.0000000000000000    0.0000000000000000   23.7642002300000037
   B    O 
     4     6
Direct
  0.1701147172334168  0.3030856170602322  0.5273562840828768
  0.8364719488824747  0.3030886602568493  0.4726301274024066
  0.6701135772899662  0.8030870661073074  0.4726430015383862
  0.3364726438193080  0.8030883773849266  0.5273689302380182
  0.6851199610566231  0.5003377628270622  0.4587978870380131
  0.3214358812282260  0.5003397853657919  0.5412089156389929
  0.1851203006173001  0.0003381656085689  0.5412006445089991
  0.8214368581568522  0.0003393656465120  0.4587895380695042
  0.0033217530423098  0.4146931336678272  0.4999805252310528
  0.5033209941620900  0.9146920770267437  0.5000185256123660
 
  0.00000000E+00  0.00000000E+00  0.00000000E+00
  0.00000000E+00  0.00000000E+00  0.00000000E+00
  0.00000000E+00  0.00000000E+00  0.00000000E+00
  0.00000000E+00  0.00000000E+00  0.00000000E+00
  0.00000000E+00  0.00000000E+00  0.00000000E+00
  0.00000000E+00  0.00000000E+00  0.00000000E+00
  0.00000000E+00  0.00000000E+00  0.00000000E+00
  0.00000000E+00  0.00000000E+00  0.00000000E+00
  0.00000000E+00  0.00000000E+00  0.00000000E+00
  0.00000000E+00  0.00000000E+00  0.00000000E+00
