B  O                                    
   1.00000000000000     
     6.6314145817462764    0.0000000000000000    0.0000000000000000
0.0000000000000000 4.4167090589266957 0.0000000000000000
     0.0000000000000000    0.0000000000000000   23.7642002300000037
   B    O 
     4     6
Direct
  0.1703622480911099  0.3029258674555897  0.5273714198804448
  0.8362241876417189  0.3029285263270888  0.4726155111740135
  0.6703614376638989  0.8029267565390523  0.4726276192412008
  0.3362248001358477  0.8029287542958879  0.5273835673809842
  0.6858616064482089  0.5012396122193223  0.4587664400227923
  0.3206942681764640  0.5012467746935879  0.5412387488608871
  0.1858637499303835  0.0012414807652116  0.5412322306488473
  0.8206958290392964  0.0012454087132831  0.4587598066629014
  0.0033201074503178  0.4132044011898730  0.4999816831825490
  0.5033204009113208  0.9132024287529250  0.5000173523059946
 
  0.00000000E+00  0.00000000E+00  0.00000000E+00
  0.00000000E+00  0.00000000E+00  0.00000000E+00
  0.00000000E+00  0.00000000E+00  0.00000000E+00
  0.00000000E+00  0.00000000E+00  0.00000000E+00
  0.00000000E+00  0.00000000E+00  0.00000000E+00
  0.00000000E+00  0.00000000E+00  0.00000000E+00
  0.00000000E+00  0.00000000E+00  0.00000000E+00
  0.00000000E+00  0.00000000E+00  0.00000000E+00
  0.00000000E+00  0.00000000E+00  0.00000000E+00
  0.00000000E+00  0.00000000E+00  0.00000000E+00
