Generated by VASPKIT code               
   1.00000000000000     
     3.3635997417660608   -0.0000005234724442   -0.0000000154442515
    -1.6817995478683883    2.9129629853791710    0.0000000326380068
    -0.0000001186287053    0.0000002153562014   20.2525878202371672
   Mo   S    Te
     1     1     1
Direct
  0.3333334202817961  0.6666665372967090  0.5070396948478801
  0.6666667374207236  0.3333332091221587  0.5797495324311247
  0.6666667372974718  0.3333332385811306  0.4132107417209963
 
  0.00000000E+00  0.00000000E+00  0.00000000E+00
  0.00000000E+00  0.00000000E+00  0.00000000E+00
  0.00000000E+00  0.00000000E+00  0.00000000E+00
