K-Spacing From VASPKIT
0
Gamma
18  18   1
0.0  0.0  0.0
