Generated by VASPKIT code               
1.0
        3.3269999027         0.0000000000         0.0000000000
       -1.6634991840         2.8812668772         0.0000000000
        0.0000000000         0.0000000000        20.7006263733
   Mo    S   Te
    1    1    1
Direct
     0.333333403         0.666666567         0.506888270
     0.666666746         0.333333194         0.578031778
     0.666666746         0.333333224         0.415079921
