&CONTROL
    calculation   =  "scf"
    nstep         =  0
    pseudo_dir    =  "./"
    outdir        =  "./wfc-out"  
    disk_io       =  "None"
    max_seconds   =  10
/

&SYSTEM
    ecutrho     =  500
    ecutwfc     =  60
    ibrav       =  0
    nat         =  80
    ntyp        =  1
    occupations =  smearing
    smearing    = "gaussian"
    degauss     =  0.01
    nosym       = .FALSE.    ! Default is .FALSE.
    nosym_evc   = .FALSE.    ! Default is .FALSE.
    noinv       = .FALSE.    ! Default is .FALSE.
/

&ELECTRONS
    conv_thr         =  1.0D-10
    electron_maxstep =  -1
    mixing_beta      =  7.00000e-01
    startingpot      = "file"
    startingwfc      =  "random"
/

K_POINTS (automatic)
 9 9 1 0 0 0


ATOMIC_SPECIES
C      12.01  C.pbe-n-kjpaw_psl.1.0.0.UPF

CELL_PARAMETERS angstrom
       17.0968971252         0.0000000000         0.0000000000
        0.0000000000        12.3386220932         0.0000000000
        0.0000000000         0.0000000000        20.0000000000

ATOMIC_POSITIONS crystal
C      0.000000000         0.100000001         0.500000000
C      0.000000000         0.300000012         0.500000000
C      0.000000000         0.500000000         0.500000000
C      0.000000000         0.699999988         0.500000000
C      0.000000000         0.899999976         0.500000000
C      0.250000000         0.100000001         0.500000000
C      0.250000000         0.300000012         0.500000000
C      0.250000000         0.500000000         0.500000000
C      0.250000000         0.699999988         0.500000000
C      0.250000000         0.899999976         0.500000000
C      0.500000000         0.100000001         0.500000000
C      0.500000000         0.300000012         0.500000000
C      0.500000000         0.500000000         0.500000000
C      0.500000000         0.699999988         0.500000000
C      0.500000000         0.899999976         0.500000000
C      0.750000000         0.100000001         0.500000000
C      0.750000000         0.300000012         0.500000000
C      0.750000000         0.500000000         0.500000000
C      0.750000000         0.699999988         0.500000000
C      0.750000000         0.899999976         0.500000000
C      0.041666746         0.000000000         0.500000000
C      0.041666746         0.200000003         0.500000000
C      0.041666746         0.400000006         0.500000000
C      0.041666746         0.600000024         0.500000000
C      0.041666746         0.800000012         0.500000000
C      0.291666746         0.000000000         0.500000000
C      0.291666746         0.200000003         0.500000000
C      0.291666746         0.400000006         0.500000000
C      0.291666746         0.600000024         0.500000000
C      0.291666746         0.800000012         0.500000000
C      0.541666746         0.000000000         0.500000000
C      0.541666746         0.200000003         0.500000000
C      0.541666746         0.400000006         0.500000000
C      0.541666746         0.600000024         0.500000000
C      0.541666746         0.800000012         0.500000000
C      0.791666746         0.000000000         0.500000000
C      0.791666746         0.200000003         0.500000000
C      0.791666746         0.400000006         0.500000000
C      0.791666746         0.600000024         0.500000000
C      0.791666746         0.800000012         0.500000000
C      0.125000000         0.000000000         0.500000000
C      0.125000000         0.200000003         0.500000000
C      0.125000000         0.400000006         0.500000000
C      0.125000000         0.600000024         0.500000000
C      0.125000000         0.800000012         0.500000000
C      0.375000000         0.000000000         0.500000000
C      0.375000000         0.200000003         0.500000000
C      0.375000000         0.400000006         0.500000000
C      0.375000000         0.600000024         0.500000000
C      0.375000000         0.800000012         0.500000000
C      0.625000000         0.000000000         0.500000000
C      0.625000000         0.200000003         0.500000000
C      0.625000000         0.400000006         0.500000000
C      0.625000000         0.600000024         0.500000000
C      0.625000000         0.800000012         0.500000000
C      0.875000000         0.000000000         0.500000000
C      0.875000000         0.200000003         0.500000000
C      0.875000000         0.400000006         0.500000000
C      0.875000000         0.600000024         0.500000000
C      0.875000000         0.800000012         0.500000000
C      0.166666746         0.100000001         0.500000000
C      0.166666746         0.300000012         0.500000000
C      0.166666746         0.500000000         0.500000000
C      0.166666746         0.699999988         0.500000000
C      0.166666746         0.899999976         0.500000000
C      0.416666746         0.100000001         0.500000000
C      0.416666746         0.300000012         0.500000000
C      0.416666746         0.500000000         0.500000000
C      0.416666746         0.699999988         0.500000000
C      0.416666746         0.899999976         0.500000000
C      0.666666746         0.100000001         0.500000000
C      0.666666746         0.300000012         0.500000000
C      0.666666746         0.500000000         0.500000000
C      0.666666746         0.699999988         0.500000000
C      0.666666746         0.899999976         0.500000000
C      0.916666746         0.100000001         0.500000000
C      0.916666746         0.300000012         0.500000000
C      0.916666746         0.500000000         0.500000000
C      0.916666746         0.699999988         0.500000000
C      0.916666746         0.899999976         0.500000000














































































