Mo Te                                   
   1.00000000000000     
     6.3940267105187152    0.0000000000000000    0.0000000000000000
     0.0000000000000000    3.4074920172550214    0.0000000000000000
     0.0000000000000000    0.0000000000000000   28.0000000000000000
   Mo   Te
     2     4
Direct
  1.0376148245203543  0.9529398746413167  0.4992967505649115
  0.4355600898288692  0.4309801587926633  0.4993820004206473
  0.6572718462988022  0.9599345991903432  0.4402422229916901
  0.1458447144294273  0.4641893509410486  0.4276971113899777
  0.6856023563487451  0.8618780159019729  0.5582189493206797
  0.1817173968462415  0.3540484627686165  0.5751629864346458
 
             NaN             NaN             NaN
             NaN             NaN             NaN
             NaN             NaN             NaN
             NaN             NaN             NaN
             NaN             NaN             NaN
             NaN             NaN             NaN
