Mo Te 
 1.0000000000000000
     6.3940267105187152    0.0000000000000000    0.0000000000000000
     0.0000000000000000    3.4074920172550214    0.0000000000000000
     0.0000000000000000    0.0000000000000000   28.0000000000000000
   2   4
Cartesian
 -0.0001193393449784 -0.0000000005044311 13.9708060813521193
  2.9082981481821819  1.7037460080363966 14.0291867451299002
  4.1747692012457716 -0.0000000024447096 12.3004219331173434
  0.9592590421062896  1.7037460082606344 12.1078018075574487
  4.4649997610396994 -0.5679153359607131 15.6995755000501109
  1.2864638725192239  1.1358306760770140 15.8922085282697765
