Generated by VASPKIT code               
   1.00000000000000     
     3.3635995388000000    0.0000000000000000    0.0000000000000000
     0.0000000000000000    5.8375776786540001    0.0000000000000000
     0.0000000000000000    0.0000000000000000   20.2525882720999988
   Mo   S    Te
     2     2     2
Direct
  0.4999999900899113  0.1665777972491895  0.5070376464371265
  0.9999999893416387  0.6665781918199727  0.5070375423166027
  0.4999999866714191  0.8333839108484042  0.5797114053083163
  0.9999999898168355  0.3333827865144485  0.5797111985235261
  0.4999999926180578  0.8333717805506495  0.4132510180638747
  0.9999999914621327  0.3333715650173374  0.4132510713505368
 
  0.00000000E+00  0.00000000E+00  0.00000000E+00
  0.00000000E+00  0.00000000E+00  0.00000000E+00
  0.00000000E+00  0.00000000E+00  0.00000000E+00
  0.00000000E+00  0.00000000E+00  0.00000000E+00
  0.00000000E+00  0.00000000E+00  0.00000000E+00
  0.00000000E+00  0.00000000E+00  0.00000000E+00
