 POSCAR with strain of -0.010           
   1.00000000000000     
     4.3385331972900003    0.0000000000000000    0.0000000000000000
     0.0000000000000000    4.2924778571899997    0.0000000000000000
     0.0000000000000000    0.0000000000000000   20.0000000000000000
   Sn   Se
     2     2
Direct
  0.5760681981038972  0.7499999973577605  0.5686634416161780
  0.0760681921356837  0.2499999928375613  0.4313338812057035
  0.0380355721536398  0.2499999959925261  0.5673209301364890
  0.5380360116067794  0.7500000138121521  0.4326817470416368
 
  0.00000000E+00  0.00000000E+00  0.00000000E+00
  0.00000000E+00  0.00000000E+00  0.00000000E+00
  0.00000000E+00  0.00000000E+00  0.00000000E+00
  0.00000000E+00  0.00000000E+00  0.00000000E+00
