Se Sn                                   
   1.00000000000000     
     4.3777134034494658    0.0000062138715948    0.0000000000000000
     0.0000060631536394    4.2767347429362683    0.0000000000000000
     0.0000000000000000    0.0000000000000000   24.7585268899999988
   Se   Sn
     2     2
Direct
  0.0731666898668237  0.9999092664395377  0.4458124808169401
  0.5731516914573973  0.4999122579625066  0.5541915411481995
  0.1191605834956846  0.9999129555175656  0.5555802024273149
  0.6191512708876132  0.4999143052275343  0.4444215614929803
 
  0.00000000E+00  0.00000000E+00  0.00000000E+00
  0.00000000E+00  0.00000000E+00  0.00000000E+00
  0.00000000E+00  0.00000000E+00  0.00000000E+00
  0.00000000E+00  0.00000000E+00  0.00000000E+00
