# ReaxFF benchmark: simulation of PETN crystal, replicated unit cell

units		real
atom_style	charge

read_data	data.reax

#replicate	7 8 10
replicate	7 8 5

velocity	all create 300.0 9999

pair_style	reaxff NULL
pair_coeff      * * ffield.reax C H O N

timestep	0.1
fix charge_eq all qeq/reaxff 1 0.0 10.0 1.0e-6 reaxff 

fix		2 all nve 

thermo		10
thermo_style	custom step temp ke pe pxx pyy pzz etotal

run		100
