Generated by VASPKIT code               
   1.00000000000000     
     3.3635995388000000    0.0000000000000000    0.0000000000000000
     0.0000000000000000    5.8550554561350001    0.0000000000000000
     0.0000000000000000    0.0000000000000000   20.2525882720999988
   Mo   S    Te
     2     2     2
Direct
  0.4999999904022928  0.1664384949291239  0.5070298542354469
 -0.0000000110458939  0.6664384361756133  0.5070299454340367
  0.4999999857149998  0.8334606862798433  0.5796206707872112
 -0.0000000102573947  0.3334607249672160  0.5796206680868762
  0.4999999935406175  0.8334339680312771  0.4133493518528414
 -0.0000000083546263  0.3334337216169357  0.4133493916035708
 
  0.00000000E+00  0.00000000E+00  0.00000000E+00
  0.00000000E+00  0.00000000E+00  0.00000000E+00
  0.00000000E+00  0.00000000E+00  0.00000000E+00
  0.00000000E+00  0.00000000E+00  0.00000000E+00
  0.00000000E+00  0.00000000E+00  0.00000000E+00
  0.00000000E+00  0.00000000E+00  0.00000000E+00
