K-Spacing Value to Generate K-Mesh: 0.016
0
Gamma
  19  11   1
0.0  0.0  0.0
