Si_2x2x2                                
   1.00000000000000     
    10.9374551773000004    0.0000000000000000    0.0000000000000000
     0.0000000000000000   10.9374551773000004    0.0000000000000000
     0.0000000000000000    0.0000000000000000   10.9374551773000004
   Si
    64
Direct
  0.2421480752590367  0.2933998594768680  0.9901916356809494
  0.2161458067253284  0.2100864625723345  0.4306268648407788
  0.2362210233734626  0.6829838564607936  0.8719411210898523
  0.2307650760962682  0.7213278264175064  0.4764007825106056
  0.8219533561773215  0.2580930354738653  0.0522937523946414
  0.7676325417772144  0.2580645924887259  0.4540167111172622
  0.6907730524184897  0.8106281521686566  0.0260772206689506
  0.7707404293837143  0.7634506590219717  0.4740280373243179
  0.4854338344205723  0.9419157898843666  0.2497646877936061
  0.2116080748040534  0.9383487723499886  0.7812775924181656
  0.2316666881575936  0.5266508477286207  0.2606732814269612
  0.2202401653382885  0.4492730727896654  0.6656941362343786
  0.6038678398504496  0.8736000247814761  0.5609153614670825
  0.8844044741147857  0.1235249447413068  0.9163758134012223
  0.7611450887618784  0.5621035722675360  0.1978141900444097
  0.7470621911333772  0.5035516499499099  0.7530492419227174
 -0.0034979008699118  0.2858701233519392  0.2108134623989885
  0.9603312752954941  0.1884058216938564  0.7161951855863943
  0.1273142915075445  0.7946310950628501  0.0905216538110343
  0.9235389354350606  0.7965405994712338  0.7169870531981449
  0.4231580108032270  0.1505300327548510  0.2565295768681729
  0.5139644672261676  0.2204998727719823  0.7876776141179396
  0.3953044678806468  0.7140629964321251  0.2840528131226087
  0.4218111262862832  0.6896739014118232  0.8139206911660541
  0.0002168841604973  0.0229085906082767  0.0988741804117558
  0.0495507749749502  0.0374099873293915  0.5548999995643619
  0.9749458807527733  0.5351042517965920  0.9171745702010224
  0.0362135882012042  0.5242310145217085  0.4904859064285653
  0.5152412336822745  1.0046603076805631  0.0212067538923058
  0.5412716006343982  0.0281125146121181  0.6927724168509991
  0.4554486471842355  0.4625026469802239  0.0021436997816257
  0.4842784696715817  0.4715633058336037  0.4955670820296602
  0.0726559819280165  0.0985290447536697  0.3086283342608201
  0.1098375554159822  0.1318815664793334  0.9065097952966187
  0.0979768146057624  0.6850715514000590  0.3244640248797264
  0.0653854542126218  0.6049619485298440  0.7539379487381375
  0.5848590420023065  0.0916993992720801  0.4597512328395611
  0.6252148228852348  0.1662121255861066  0.9655743635350205
  0.5973046354659518  0.6325929773869901  0.3485415371213860
  0.6357948759507381  0.6568293071819381  0.8682451571720343
  0.1190326205490807  0.4347142008888953  0.0776833595606553
  0.0660344448620638  0.3173901484388018  0.5660613470996340
  0.3604300412287046  0.8258864202990647  0.0070637647917992
  0.0958156265946947  0.8438579529064463  0.6168427197713025
  0.6492655248871780  0.4625985897043919  0.0511562965455468
  0.6196983082306737  0.3680532342012926  0.6332621553584720
  0.7014968656143431  0.8117512396340787  0.2525150183538052
  0.7390498044802892  0.9823634078503577  0.7881881434851604
  0.4625542109481261  0.2474624500032076  0.0634251651235865
  0.3391936513425147  0.0150633442793686  0.5745642331808045
  0.3185288789893749  0.5745864775547848  0.0741110620047539
  0.3580516381858593  0.5948058535291010  0.6043539526269429
  0.8386160629097026  0.1186290711781182  0.2329915474450360
  0.8258717829272859  0.0486623235538254  0.5463374506505928
  0.9102538955255397  0.6852034587358928  0.0474547651210073
  0.8656233100931456  0.5934091272847066  0.6082519635769982
  0.3383322422735103  0.3749209892628135  0.3412344086319921
  0.2645613737175624  0.4625571195806007  0.8640417507258172
  0.3955376983679827  0.8259099135967209  0.4507904881041954
  0.4247430390004853  0.9058131499178897  0.7889233811075429
  0.9087784062358683  0.4324864045187039  0.3390408878005416
  0.8645786115746001  0.3732238188052866  0.8413276675523151
  0.9169700256208538  0.8990972955540063  0.4257321482235876
  0.8870533050556846  0.8900658999448924  0.9580308327490712
 
 -0.79749855E-03  0.34763786E-02  0.57594764E-02
  0.42682226E-02 -0.56042220E-02 -0.25021708E-02
  0.33406252E-02  0.20745655E-02  0.28915844E-02
 -0.17033869E-02  0.68422551E-02 -0.34840816E-02
  0.95674604E-02  0.86393706E-02  0.55690575E-02
 -0.20857434E-02  0.22966462E-02 -0.93298309E-02
  0.10859987E-01  0.23681760E-02 -0.14813241E-02
 -0.80925114E-02 -0.18196269E-02  0.64668422E-02
  0.17182206E-01 -0.69602538E-02 -0.82901875E-02
 -0.17726059E-02 -0.29038304E-02  0.62062623E-02
 -0.55952282E-02  0.39464252E-03 -0.99664549E-02
 -0.37024429E-02  0.27886673E-02 -0.44851713E-02
 -0.98740274E-02 -0.19568676E-01 -0.15197237E-02
  0.18040762E-01 -0.97885224E-02  0.38388447E-02
  0.57669927E-02  0.56444576E-02 -0.27654555E-02
 -0.62479599E-02  0.55987303E-02 -0.76289373E-03
 -0.58963962E-02  0.60049723E-02  0.11637583E-02
  0.53935631E-02  0.17670687E-02  0.11447040E-02
  0.40318065E-02  0.31307612E-02 -0.53516815E-02
 -0.97479904E-03 -0.89883884E-02 -0.14549316E-02
 -0.20059367E-02 -0.11114168E-01  0.99522915E-02
  0.73903144E-02  0.15002884E-01  0.47378653E-02
 -0.91367244E-02 -0.78625021E-03 -0.94104491E-02
  0.17146331E-01  0.69913992E-02  0.44309053E-02
  0.99533445E-03 -0.12565789E-01 -0.69305185E-02
  0.73340862E-02  0.13879821E-02  0.29096862E-02
  0.92342864E-02 -0.20721940E-02  0.14476291E-01
  0.18415907E-02  0.42508967E-02 -0.81670064E-02
 -0.19397643E-02  0.10334649E-01 -0.23137263E-02
 -0.89207385E-02  0.15370226E-02  0.32421128E-02
 -0.23450652E-02  0.54084538E-02 -0.79029162E-02
  0.10448906E-01 -0.42150511E-02 -0.23144741E-02
 -0.20345574E-02 -0.67643652E-02 -0.27587939E-03
  0.30403391E-03 -0.32003644E-03  0.46425227E-02
  0.60728666E-03  0.56099576E-02 -0.61005019E-02
 -0.50289568E-02 -0.42287411E-02 -0.16025677E-02
  0.48724023E-02 -0.71415912E-02  0.67490715E-03
 -0.51648418E-02  0.44335856E-03  0.66734433E-02
 -0.11976724E-02 -0.26988604E-02 -0.11521878E-02
 -0.51295166E-02  0.24358816E-02  0.22525020E-02
 -0.35271735E-02  0.63022634E-02  0.10053254E-02
 -0.72024892E-03 -0.64850304E-02  0.33413031E-02
  0.37400323E-02 -0.47811250E-02  0.80050913E-03
  0.56316801E-02 -0.20307804E-02 -0.10761757E-01
  0.72364517E-03  0.76698093E-02 -0.56612690E-02
 -0.11629735E-01 -0.33101600E-02 -0.43503210E-02
  0.66330375E-02 -0.10284494E-01 -0.38706795E-02
  0.34508026E-02 -0.25001481E-02  0.68936942E-02
 -0.71421980E-02 -0.26335686E-02  0.35042343E-03
 -0.40186618E-02  0.11625708E-01  0.11827736E-02
 -0.15891144E-01  0.56251784E-02  0.55242632E-02
 -0.28811156E-03  0.14306102E-02  0.12410032E-01
 -0.74361527E-02 -0.69146410E-02  0.12193649E-01
 -0.10173884E-02 -0.30985238E-02 -0.97855948E-02
  0.90943501E-02  0.10204991E-01  0.23551086E-02
  0.39740058E-02  0.39011348E-02  0.23239434E-03
 -0.59771210E-02 -0.88095068E-02 -0.26550227E-02
 -0.13218027E-01  0.22444535E-01  0.12716161E-01
  0.37230570E-02 -0.40063489E-02  0.78417863E-02
 -0.88651997E-02  0.25773536E-02 -0.34847291E-03
 -0.81828113E-04 -0.67176653E-02 -0.82616436E-02
 -0.57161791E-02 -0.22494589E-02 -0.10742962E-01
 -0.45910032E-02 -0.33039427E-03  0.30012143E-02
  0.41697380E-02 -0.45183507E-02 -0.28798375E-02
 
           1
   3.00000000000000     
 -0.10010384E+01  0.66291290E-03  0.58696107E-02 -0.10043046E+01
  0.24192933E+00  0.29435338E+00  0.99177138E+00
  0.21731652E+00  0.20854930E+00  0.42994055E+00
  0.23713731E+00  0.68355288E+00  0.87273424E+00
  0.23029786E+00  0.72320457E+00  0.47544514E+00
  0.82457758E+00  0.26046270E+00  0.53821272E-01
  0.76706045E+00  0.25869453E+00  0.45145766E+00
  0.69375180E+00  0.81127771E+00  0.25670913E-01
  0.76852076E+00  0.76295156E+00  0.47580181E+00
  0.49014669E+00  0.94000668E+00  0.24749080E+00
  0.21112187E+00  0.93755229E+00  0.78297989E+00
  0.23013199E+00  0.52675909E+00  0.25793961E+00
  0.21922463E+00  0.45003797E+00  0.66446391E+00
  0.60115952E+00  0.86823259E+00  0.56049852E+00
  0.88935282E+00  0.12084008E+00  0.91742876E+00
  0.76272690E+00  0.56365177E+00  0.19705566E+00
  0.74534846E+00  0.50508731E+00  0.75283999E+00
  0.99488480E+00  0.28751721E+00  0.21113267E+00
  0.96181066E+00  0.18889051E+00  0.71650916E+00
  0.12842016E+00  0.79548982E+00  0.89053758E-01
  0.92327156E+00  0.79407520E+00  0.71658798E+00
  0.42260781E+00  0.14748156E+00  0.25925936E+00
  0.51599153E+00  0.22461497E+00  0.78897715E+00
  0.39279838E+00  0.71384734E+00  0.28147165E+00
  0.42651414E+00  0.69159155E+00  0.81513603E+00
  0.48989130E-03  0.19461960E-01  0.96973230E-01
  0.51562418E-01  0.37790693E-01  0.55569809E+00
  0.97747872E+00  0.53453588E+00  0.92114523E+00
  0.36718712E-01  0.52539698E+00  0.48824580E+00
  0.51470918E+00  0.74949660E-02  0.20572129E-01
  0.53882476E+00  0.28534100E-01  0.69366169E+00
  0.45480543E+00  0.46398611E+00  0.99997603E+00
  0.48714447E+00  0.47040717E+00  0.49493225E+00
  0.72097930E-01  0.96673668E-01  0.30855266E+00
  0.10992095E+00  0.13179378E+00  0.90778318E+00
  0.98143385E-01  0.68661029E+00  0.32279074E+00
  0.64006078E-01  0.60380206E+00  0.75349839E+00
  0.58619548E+00  0.89740555E-01  0.45993635E+00
  0.62379817E+00  0.16633373E+00  0.96740480E+00
  0.59697613E+00  0.63185272E+00  0.34822551E+00
  0.63438792E+00  0.65749744E+00  0.86886299E+00
  0.11806516E+00  0.43644283E+00  0.77959107E-01
  0.65836890E-01  0.31561139E+00  0.56697782E+00
  0.36145588E+00  0.82457502E+00  0.72833339E-02
  0.97360322E-01  0.84330094E+00  0.61389091E+00
  0.64946401E+00  0.46470232E+00  0.49603485E-01
  0.61650842E+00  0.36714530E+00  0.63206892E+00
  0.70331622E+00  0.80893034E+00  0.25145334E+00
  0.73999631E+00  0.98167765E+00  0.79007899E+00
  0.46059520E+00  0.24674010E+00  0.63521282E-01
  0.33809139E+00  0.18252123E-01  0.57488865E+00
  0.31417015E+00  0.57612939E+00  0.75626295E-01
  0.35797261E+00  0.59519825E+00  0.60775786E+00
  0.83657642E+00  0.11673248E+00  0.23633610E+00
  0.82559273E+00  0.47812439E-01  0.54365339E+00
  0.91274836E+00  0.68800255E+00  0.48100740E-01
  0.86671333E+00  0.59447916E+00  0.60831571E+00
  0.33669280E+00  0.37250466E+00  0.34050617E+00
  0.26093584E+00  0.46871336E+00  0.86752963E+00
  0.39655888E+00  0.82481102E+00  0.45294139E+00
  0.42231143E+00  0.90652008E+00  0.78882780E+00
  0.90875596E+00  0.43064384E+00  0.33677483E+00
  0.86301074E+00  0.37260682E+00  0.83838101E+00
  0.91571077E+00  0.89900667E+00  0.42655534E+00
  0.88819701E+00  0.88882658E+00  0.95724093E+00
  0.00000000E+00  0.00000000E+00  0.00000000E+00
  0.00000000E+00  0.00000000E+00  0.00000000E+00
  0.00000000E+00  0.00000000E+00  0.00000000E+00
  0.00000000E+00  0.00000000E+00  0.00000000E+00
  0.00000000E+00  0.00000000E+00  0.00000000E+00
  0.00000000E+00  0.00000000E+00  0.00000000E+00
  0.00000000E+00  0.00000000E+00  0.00000000E+00
  0.00000000E+00  0.00000000E+00  0.00000000E+00
  0.00000000E+00  0.00000000E+00  0.00000000E+00
  0.00000000E+00  0.00000000E+00  0.00000000E+00
  0.00000000E+00  0.00000000E+00  0.00000000E+00
  0.00000000E+00  0.00000000E+00  0.00000000E+00
  0.00000000E+00  0.00000000E+00  0.00000000E+00
  0.00000000E+00  0.00000000E+00  0.00000000E+00
  0.00000000E+00  0.00000000E+00  0.00000000E+00
  0.00000000E+00  0.00000000E+00  0.00000000E+00
  0.00000000E+00  0.00000000E+00  0.00000000E+00
  0.00000000E+00  0.00000000E+00  0.00000000E+00
  0.00000000E+00  0.00000000E+00  0.00000000E+00
  0.00000000E+00  0.00000000E+00  0.00000000E+00
  0.00000000E+00  0.00000000E+00  0.00000000E+00
  0.00000000E+00  0.00000000E+00  0.00000000E+00
  0.00000000E+00  0.00000000E+00  0.00000000E+00
  0.00000000E+00  0.00000000E+00  0.00000000E+00
  0.00000000E+00  0.00000000E+00  0.00000000E+00
  0.00000000E+00  0.00000000E+00  0.00000000E+00
  0.00000000E+00  0.00000000E+00  0.00000000E+00
  0.00000000E+00  0.00000000E+00  0.00000000E+00
  0.00000000E+00  0.00000000E+00  0.00000000E+00
  0.00000000E+00  0.00000000E+00  0.00000000E+00
  0.00000000E+00  0.00000000E+00  0.00000000E+00
  0.00000000E+00  0.00000000E+00  0.00000000E+00
  0.00000000E+00  0.00000000E+00  0.00000000E+00
  0.00000000E+00  0.00000000E+00  0.00000000E+00
  0.00000000E+00  0.00000000E+00  0.00000000E+00
  0.00000000E+00  0.00000000E+00  0.00000000E+00
  0.00000000E+00  0.00000000E+00  0.00000000E+00
  0.00000000E+00  0.00000000E+00  0.00000000E+00
  0.00000000E+00  0.00000000E+00  0.00000000E+00
  0.00000000E+00  0.00000000E+00  0.00000000E+00
  0.00000000E+00  0.00000000E+00  0.00000000E+00
  0.00000000E+00  0.00000000E+00  0.00000000E+00
  0.00000000E+00  0.00000000E+00  0.00000000E+00
  0.00000000E+00  0.00000000E+00  0.00000000E+00
  0.00000000E+00  0.00000000E+00  0.00000000E+00
  0.00000000E+00  0.00000000E+00  0.00000000E+00
  0.00000000E+00  0.00000000E+00  0.00000000E+00
  0.00000000E+00  0.00000000E+00  0.00000000E+00
  0.00000000E+00  0.00000000E+00  0.00000000E+00
  0.00000000E+00  0.00000000E+00  0.00000000E+00
  0.00000000E+00  0.00000000E+00  0.00000000E+00
  0.00000000E+00  0.00000000E+00  0.00000000E+00
  0.00000000E+00  0.00000000E+00  0.00000000E+00
  0.00000000E+00  0.00000000E+00  0.00000000E+00
  0.00000000E+00  0.00000000E+00  0.00000000E+00
  0.00000000E+00  0.00000000E+00  0.00000000E+00
  0.00000000E+00  0.00000000E+00  0.00000000E+00
  0.00000000E+00  0.00000000E+00  0.00000000E+00
  0.00000000E+00  0.00000000E+00  0.00000000E+00
  0.00000000E+00  0.00000000E+00  0.00000000E+00
  0.00000000E+00  0.00000000E+00  0.00000000E+00
  0.00000000E+00  0.00000000E+00  0.00000000E+00
  0.00000000E+00  0.00000000E+00  0.00000000E+00
  0.00000000E+00  0.00000000E+00  0.00000000E+00
  0.00000000E+00  0.00000000E+00  0.00000000E+00
  0.00000000E+00  0.00000000E+00  0.00000000E+00
  0.00000000E+00  0.00000000E+00  0.00000000E+00
  0.00000000E+00  0.00000000E+00  0.00000000E+00
  0.00000000E+00  0.00000000E+00  0.00000000E+00
  0.00000000E+00  0.00000000E+00  0.00000000E+00
  0.00000000E+00  0.00000000E+00  0.00000000E+00
  0.00000000E+00  0.00000000E+00  0.00000000E+00
  0.00000000E+00  0.00000000E+00  0.00000000E+00
  0.00000000E+00  0.00000000E+00  0.00000000E+00
  0.00000000E+00  0.00000000E+00  0.00000000E+00
  0.00000000E+00  0.00000000E+00  0.00000000E+00
  0.00000000E+00  0.00000000E+00  0.00000000E+00
  0.00000000E+00  0.00000000E+00  0.00000000E+00
  0.00000000E+00  0.00000000E+00  0.00000000E+00
  0.00000000E+00  0.00000000E+00  0.00000000E+00
  0.00000000E+00  0.00000000E+00  0.00000000E+00
  0.00000000E+00  0.00000000E+00  0.00000000E+00
  0.00000000E+00  0.00000000E+00  0.00000000E+00
  0.00000000E+00  0.00000000E+00  0.00000000E+00
  0.00000000E+00  0.00000000E+00  0.00000000E+00
  0.00000000E+00  0.00000000E+00  0.00000000E+00
  0.00000000E+00  0.00000000E+00  0.00000000E+00
  0.00000000E+00  0.00000000E+00  0.00000000E+00
  0.00000000E+00  0.00000000E+00  0.00000000E+00
  0.00000000E+00  0.00000000E+00  0.00000000E+00
  0.00000000E+00  0.00000000E+00  0.00000000E+00
  0.00000000E+00  0.00000000E+00  0.00000000E+00
  0.00000000E+00  0.00000000E+00  0.00000000E+00
  0.00000000E+00  0.00000000E+00  0.00000000E+00
  0.00000000E+00  0.00000000E+00  0.00000000E+00
  0.00000000E+00  0.00000000E+00  0.00000000E+00
  0.00000000E+00  0.00000000E+00  0.00000000E+00
  0.00000000E+00  0.00000000E+00  0.00000000E+00
  0.00000000E+00  0.00000000E+00  0.00000000E+00
  0.00000000E+00  0.00000000E+00  0.00000000E+00
  0.00000000E+00  0.00000000E+00  0.00000000E+00
  0.00000000E+00  0.00000000E+00  0.00000000E+00
  0.00000000E+00  0.00000000E+00  0.00000000E+00
  0.00000000E+00  0.00000000E+00  0.00000000E+00
  0.00000000E+00  0.00000000E+00  0.00000000E+00
  0.00000000E+00  0.00000000E+00  0.00000000E+00
  0.00000000E+00  0.00000000E+00  0.00000000E+00
  0.00000000E+00  0.00000000E+00  0.00000000E+00
  0.00000000E+00  0.00000000E+00  0.00000000E+00
  0.00000000E+00  0.00000000E+00  0.00000000E+00
  0.00000000E+00  0.00000000E+00  0.00000000E+00
  0.00000000E+00  0.00000000E+00  0.00000000E+00
  0.00000000E+00  0.00000000E+00  0.00000000E+00
  0.00000000E+00  0.00000000E+00  0.00000000E+00
  0.00000000E+00  0.00000000E+00  0.00000000E+00
  0.00000000E+00  0.00000000E+00  0.00000000E+00
  0.00000000E+00  0.00000000E+00  0.00000000E+00
  0.00000000E+00  0.00000000E+00  0.00000000E+00
  0.00000000E+00  0.00000000E+00  0.00000000E+00
  0.00000000E+00  0.00000000E+00  0.00000000E+00
  0.00000000E+00  0.00000000E+00  0.00000000E+00
  0.00000000E+00  0.00000000E+00  0.00000000E+00
  0.00000000E+00  0.00000000E+00  0.00000000E+00
  0.00000000E+00  0.00000000E+00  0.00000000E+00
  0.00000000E+00  0.00000000E+00  0.00000000E+00
  0.00000000E+00  0.00000000E+00  0.00000000E+00
  0.00000000E+00  0.00000000E+00  0.00000000E+00
  0.00000000E+00  0.00000000E+00  0.00000000E+00
