S  Pb                                   
   1.00000000000000     
     4.1822670133276212    0.0000000000000000    0.0000000000000000
     0.0000000000000000    8.4907620797994827    0.0000000000000000
     0.0000000000000000    0.0000000000000000   27.8166048499999974
   S    Pb
     6     6
Direct
  0.4999999747721162  0.3889942446424612  0.6042238865524041
  0.5000000236578828  0.3889942506008239  0.3957761161286086
  0.4999999749102813  0.8889942508137665  0.3957761159968811
  0.5000000238090223  0.8889942446462697  0.6042238864371612
  0.9999999993404884  0.6513646412285325  0.4999999979905922
  0.9999999993595239  0.1513646412090992  0.4999999980874748
  0.9999997395670661  0.1659387035929001  0.6038856423550740
  0.0000002589667289  0.1659387049966057  0.3961143580326905
  0.9999997395891569  0.6659387047697081  0.3961143579081821
  0.0000002593390249  0.6659387036016682  0.6038856422535943
  0.4999999992842206  0.4048916373334563  0.4999999994998063
  0.4999999993579465  0.9048916373207518  0.4999999994765147
 
  0.00000000E+00  0.00000000E+00  0.00000000E+00
  0.00000000E+00  0.00000000E+00  0.00000000E+00
  0.00000000E+00  0.00000000E+00  0.00000000E+00
  0.00000000E+00  0.00000000E+00  0.00000000E+00
  0.00000000E+00  0.00000000E+00  0.00000000E+00
  0.00000000E+00  0.00000000E+00  0.00000000E+00
  0.00000000E+00  0.00000000E+00  0.00000000E+00
  0.00000000E+00  0.00000000E+00  0.00000000E+00
  0.00000000E+00  0.00000000E+00  0.00000000E+00
  0.00000000E+00  0.00000000E+00  0.00000000E+00
  0.00000000E+00  0.00000000E+00  0.00000000E+00
  0.00000000E+00  0.00000000E+00  0.00000000E+00
