1T\MoS2\small
1.0
        5.6291656494         0.0000000000         0.0000000000
        0.0000000000         3.2499992847         0.0000000000
        0.0000000000         0.0000000000        20.0000000000
   Mo    S
    2    4
Cartesian
     0.000000000         0.000000000        10.000000000
     2.814582825         1.624999642        10.000000000
     4.690952138         1.624999642         8.452106118
     1.876369649         0.000000000         8.452106118
     0.938213260         1.624999836        11.547893286
     3.752796001         0.000000000        11.547893286
