 POSCAR with strain of 0.007            
   1.00000000000000     
     4.3823567649389998    0.0164338378690000    0.0164338378690000
     0.0160967919640000    4.2924778571899997    0.0160967919640000
     0.0750000000000000    0.0750000000000000   20.1499999999999986
   Sn   Se
     2     2
Direct
  0.5787152707777737  0.7512039099604919  0.5682460325661675
  0.0835243382842863  0.2559258664497791  0.4317504779959421
  0.0306565916131160  0.2441498353464384  0.5665632541867360
  0.5353117733248243  0.7487203882432905  0.4334402352511612
 
  0.00000000E+00  0.00000000E+00  0.00000000E+00
  0.00000000E+00  0.00000000E+00  0.00000000E+00
  0.00000000E+00  0.00000000E+00  0.00000000E+00
  0.00000000E+00  0.00000000E+00  0.00000000E+00
