S  Pb                                   
   1.00000000000000     
     4.1822670133276212    0.0000000000000000    0.0000000000000000
     0.0000000000000000    8.4567990314802852    0.0000000000000000
     0.0000000000000000    0.0000000000000000   27.8166048499999974
   S    Pb
     6     6
Direct
  0.4999999999150759  0.3912851982944829  0.6047862394899113
  0.5000000008134293  0.3912852730904177  0.3952137618629976
  0.4999999752494801  0.8912851339632866  0.3952137727240839
  0.5000000210066204  0.8912852204907153  0.6047862528818371
  0.9999999974084233  0.6518330728792989  0.4999999859084880
  0.9999999985898569  0.1518330920197783  0.4999999942098015
  0.9999999763659844  0.1636524771639003  0.6040386467739793
  0.0000000244728895  0.1636523446078755  0.3959613399905706
  0.9999999814331133  0.6636525579697334  0.3959613448665920
  0.0000000170147629  0.6636524046258572  0.6040386547437819
  0.5000000000929390  0.4044137741047962  0.5000000204088337
  0.4999999995908766  0.9044138155458938  0.4999999868580929
 
  0.00000000E+00  0.00000000E+00  0.00000000E+00
  0.00000000E+00  0.00000000E+00  0.00000000E+00
  0.00000000E+00  0.00000000E+00  0.00000000E+00
  0.00000000E+00  0.00000000E+00  0.00000000E+00
  0.00000000E+00  0.00000000E+00  0.00000000E+00
  0.00000000E+00  0.00000000E+00  0.00000000E+00
  0.00000000E+00  0.00000000E+00  0.00000000E+00
  0.00000000E+00  0.00000000E+00  0.00000000E+00
  0.00000000E+00  0.00000000E+00  0.00000000E+00
  0.00000000E+00  0.00000000E+00  0.00000000E+00
  0.00000000E+00  0.00000000E+00  0.00000000E+00
  0.00000000E+00  0.00000000E+00  0.00000000E+00
