S  Pb                                   
   1.00000000000000     
     4.1822670133276212    0.0000000000000000    0.0000000000000000
     0.0000000000000000    8.4567990314802852    0.0000000000000000
     0.0000000000000000    0.0000000000000000   27.8166048499999974
   S    Pb
     6     6
Direct
  0.4999999999150755  0.3912851982944812  0.6047862394899116
  0.5000000008134297  0.3912852730904170  0.3952137618630003
  0.4999999752494809  0.8912851339632853  0.3952137727240870
  0.5000000210066222  0.8912852204907128  0.6047862528818402
 -0.0000000025915781  0.6518330728792963  0.4999999859084909
 -0.0000000014101438  0.1518330920197804  0.4999999942098037
  0.9999999763659861  0.1636524771639020  0.6040386467739781
  0.0000000244728927  0.1636523446078779  0.3959613399905735
  0.9999999814331159  0.6636525579697362  0.3959613448665931
  0.0000000170147645  0.6636524046258604  0.6040386547437796
  0.5000000000929369  0.4044137741047973  0.5000000204088303
  0.4999999995908762  0.9044138155458963  0.4999999868580954
 
  0.00000000E+00  0.00000000E+00  0.00000000E+00
  0.00000000E+00  0.00000000E+00  0.00000000E+00
  0.00000000E+00  0.00000000E+00  0.00000000E+00
  0.00000000E+00  0.00000000E+00  0.00000000E+00
  0.00000000E+00  0.00000000E+00  0.00000000E+00
  0.00000000E+00  0.00000000E+00  0.00000000E+00
  0.00000000E+00  0.00000000E+00  0.00000000E+00
  0.00000000E+00  0.00000000E+00  0.00000000E+00
  0.00000000E+00  0.00000000E+00  0.00000000E+00
  0.00000000E+00  0.00000000E+00  0.00000000E+00
  0.00000000E+00  0.00000000E+00  0.00000000E+00
  0.00000000E+00  0.00000000E+00  0.00000000E+00
