EDIFF = 1e-06
EDIFFG = -0.001
ENCUT = 600
GGA = PE
IBRION = -1
ICHARG = 11
ISMEAR = -5
ISPIN = 1
ISTART = 1
KPAR = 1
LAECHG = False
LCHARG = True
LELF = False
LVHAR = False
LVTOT = False
LWAVE = True
NCORE = 24
NSW = 0
PREC = Accurate
SIGMA = 0.05
SYSTEM = GeS
