Mo Te 
 1.0000000000000000
     6.3899999999999997    0.0000000000000000    0.0000000000000000
     0.0000000000000000    3.3999999999999999    0.0000000000000000
     0.0000000000000000    0.0000000000000000   20.0000000000000000
 Mo  Te 
   2   4
Cartesian
  0.1263194842488845  0.0307932036153705  9.9643115680227528
  2.4451194899122743  1.7686157332877634 10.1816481651622421
  4.0543759236585029  0.0442820336520125  8.5663166847293493
  0.8447618718095221  1.7304386361291511  7.9927238750853551
  4.7353684779908978  1.1604199245868834 11.6527073930232881
  1.5231365100625978  0.3654504675104510 12.2303858257421254
