 POSCAR with strain of 0.010            
   1.00000000000000     
     4.4261803325890003    0.0000000000000000    0.0000000000000000
     0.0000000000000000    4.2924778571899997    0.0000000000000000
     0.0000000000000000    0.0000000000000000   20.0000000000000000
   Sn   Se
     2     2
Direct
  0.5854542138019670  0.7499999991691134  0.5688334405899290
  0.0854541721758043  0.2499999994964883  0.4311655422117521
  0.0286496347305281  0.2500000008675463  0.5668012526921405
  0.5286499532917003  0.7500000004668518  0.4331997645061854
 
  0.00000000E+00  0.00000000E+00  0.00000000E+00
  0.00000000E+00  0.00000000E+00  0.00000000E+00
  0.00000000E+00  0.00000000E+00  0.00000000E+00
  0.00000000E+00  0.00000000E+00  0.00000000E+00
