5x5BN-1B                          
   1.00000000000000     
  12.581138305   0.000000403   0.000000000
  -6.290568804  10.895585583   0.000000000
   0.000000000   0.000000000  20.000000000
   B N 
   24 25
Direct
    0.0669374945        0.1331083759        0.5000000000
    0.0668566384        0.3334283650        0.5000000000
    0.0669375499        0.5338291755        0.5000000000
    0.0667644002        0.7335286086        0.5000000000
    0.0667643556        0.9332356514        0.5000000000
    0.2661714777        0.1323429174        0.5000000000
    0.2686872308        0.3332330484        0.5000000000
    0.2686872937        0.5354542739        0.5000000000
    0.2661714970        0.7338285330        0.5000000000
    0.2664714214        0.9332356068        0.5000000000
    0.4661709347        0.1331084136        0.5000000000
    0.4645458663        0.3332331482        0.5000000000
    0.4645457561        0.7313127363        0.5000000000
    0.4661708545        0.9330624571        0.5000000000
    0.6667015216        0.1333507344        0.5000000000
    0.6665716766        0.3334283534        0.5000000000
    0.6667668818        0.5354541637        0.5000000000
    0.6667669816        0.7313127992        0.5000000000
    0.6665716650        0.9331433686        0.5000000000
    0.8666492599        0.1333507551        0.5000000000
    0.8666492806        0.3332985084        0.5000000000
    0.8668916014        0.5338290953        0.5000000000
    0.8676570976        0.7338285523        0.5000000000
    0.8668916391        0.9330625125        0.5000000000
    0.1331111192        0.0662727205        0.5000000000
    0.1330270411        0.2666253205        0.5000000000
    0.1330270329        0.4664016216        0.5000000000
    0.1331110418        0.6668383715        0.5000000000
    0.1333333142        0.8666667008        0.5000000000
    0.3331616280        0.0662727588        0.5000000000
    0.3323766086        0.2647533130        0.5000000000
    0.3241692802        0.4620845650        0.5000000000
    0.3323767467        0.6676232833        0.5000000000
    0.3331616585        0.8668889732        0.5000000000
    0.5334111742        0.0667056426        0.5000000000
    0.5335982783        0.2666254233        0.5000000000
    0.5379152958        0.4620847342        0.5000000000
    0.5379154650        0.6758307498        0.5000000000
    0.5335984084        0.8669729821        0.5000000000
    0.7333417662        0.0666834644        0.5000000000
    0.7333417198        0.2666583102        0.5000000000
    0.7333746067        0.4664017517        0.5000000000
    0.7352467170        0.6676234214        0.5000000000
    0.7333747095        0.8669729739        0.5000000000
    0.9332944615        0.0667055455        0.5000000000
    0.9333165426        0.2666582638        0.5000000000
    0.9332943644        0.4665888558        0.5000000000
    0.9337272482        0.6668384020        0.5000000000
    0.9337272865        0.8668888958        0.5000000000