S  Pb                                   
   1.00000000000000     
     4.1822670133276212    0.0000000000000000    0.0000000000000000
     0.0000000000000000    8.5586881764378777    0.0000000000000000
     0.0000000000000000    0.0000000000000000   27.8166048499999974
   S    Pb
     6     6
Direct
  0.4999999600357328  0.3881121039675836  0.6046818771407731
  0.5000000498456688  0.3881121032799913  0.3953181204989927
  0.4999999669329488  0.8881121162355883  0.3953181178467593
  0.5000000424309985  0.8881121285702217  0.6046818748064769
 -0.0000000096329708  0.6513549716759112  0.4999999957813178
 -0.0000000083578957  0.1513549595045692  0.4999999974490624
  0.9999999207130338  0.1667226888535725  0.6038532783053020
  0.0000000745648770  0.1667226779637224  0.3961467274116889
  0.9999999189300475  0.6667226580801867  0.3961467298380685
  0.0000000746497386  0.6667226476531039  0.6038532755354054
  0.5000000010847920  0.4050976565236077  0.5000000061150882
  0.5000000007564878  0.9050976524479852  0.4999999999900489
 
  0.00000000E+00  0.00000000E+00  0.00000000E+00
  0.00000000E+00  0.00000000E+00  0.00000000E+00
  0.00000000E+00  0.00000000E+00  0.00000000E+00
  0.00000000E+00  0.00000000E+00  0.00000000E+00
  0.00000000E+00  0.00000000E+00  0.00000000E+00
  0.00000000E+00  0.00000000E+00  0.00000000E+00
  0.00000000E+00  0.00000000E+00  0.00000000E+00
  0.00000000E+00  0.00000000E+00  0.00000000E+00
  0.00000000E+00  0.00000000E+00  0.00000000E+00
  0.00000000E+00  0.00000000E+00  0.00000000E+00
  0.00000000E+00  0.00000000E+00  0.00000000E+00
  0.00000000E+00  0.00000000E+00  0.00000000E+00
