SnSe-0.70
 1.0000000000000000
     4.2924778571900175    0.0000000000000000    0.0000000000000000
     0.0000000000000000    4.3823567649391526    0.0000000000000000
     0.0000000000000000    0.0000000000000000   20.0000000000000000
 Sn  Se 
   2   2
Direct
  0.7500000000000000  0.5812433581636114  1.2687431414167252
  0.2500000000000000  0.0812433581636114  1.1312568585832752
  0.2500000000000000  0.0328606428363898  1.2670738664356422
  0.7500000000000000  0.5328606148363875  1.1329261335643650
