Generated by VASPKIT code               
   1.00000000000000     
     3.3635995388000000    0.0000000000000000    0.0000000000000000
     0.0000000000000000    5.8142739753459995    0.0000000000000000
     0.0000000000000000    0.0000000000000000   20.2525882720999988
   Mo   S    Te
     2     2     2
Direct
  0.4999999898219370  0.1667566085059225  0.5070451704515314
 -0.0000000106340858  0.6667563775144386  0.5070459183484650
  0.4999999860571709  0.8332832181769633  0.5798342771348548
 -0.0000000101539469  0.3332808366609495  0.5798339135654466
  0.4999999929156718  0.8332959233732898  0.4131200883780568
 -0.0000000080067519  0.3332930677684455  0.4131205141216283
 
  0.00000000E+00  0.00000000E+00  0.00000000E+00
  0.00000000E+00  0.00000000E+00  0.00000000E+00
  0.00000000E+00  0.00000000E+00  0.00000000E+00
  0.00000000E+00  0.00000000E+00  0.00000000E+00
  0.00000000E+00  0.00000000E+00  0.00000000E+00
  0.00000000E+00  0.00000000E+00  0.00000000E+00
