 POSCAR with strain of 0.007            
   1.00000000000000     
     4.4152244406760000    0.0164338378690000    0.0000000000000000
     0.0160967919640000    4.2924778571899997    0.0000000000000000
     0.0000000000000000    0.0000000000000000   20.0000000000000000
   Sn   Se
     2     2
Direct
  0.5843609442762425  0.7531791988842815  0.5688194483021239
  0.0843609442762422  0.2531791988842812  0.4311805516978760
  0.0297430567237590  0.2468208011157187  0.5668527228102597
  0.5297430287237563  0.7468208011157185  0.4331472771897475
 
  0.00000000E+00  0.00000000E+00  0.00000000E+00
  0.00000000E+00  0.00000000E+00  0.00000000E+00
  0.00000000E+00  0.00000000E+00  0.00000000E+00
  0.00000000E+00  0.00000000E+00  0.00000000E+00
