2H-MoS2                                 
1.0
        3.1829457283         0.0000000000         0.0000000000
        0.0000000000         5.5130214691         0.0000000000
        0.0000000000         0.0000000000        20.0000000000
   Mo    S
    2    4
Direct
     0.500000000         0.166666999         0.499987543
     0.000000000         0.666666985         0.499987543
     0.500000000         0.833333015         0.578166723
     0.000000000         0.333333015         0.578166723
     0.500000000         0.833333015         0.421808362
     0.000000000         0.333333015         0.421808362
