B  O                                    
   1.00000000000000     
     6.6314145817462764    0.0000000000000000    0.0000000000000000
     0.0000000000000000    4.4521846336971915    0.0000000000000000
     0.0000000000000000    0.0000000000000000   23.7642002300000037
   B    O 
     4     6
Direct
  0.1706045599569705  0.3027779504913539  0.5273998861059255
  0.8359798129553297  0.3027785131838314  0.4725885289481297
  0.6706035725751107  0.8027778775404002  0.4725992083093615
  0.3359805796862290  0.8027788861070775  0.5274103763196294
  0.6866392914712662  0.5021616984655921  0.4587156465958486
  0.3199245373600093  0.5021616813320904  0.5412893768468194
  0.1866385363041516  0.0021633136198389  0.5412830612756991
  0.8199250229213533  0.0021622992241035  0.4587094784976316
  0.0033152102687808  0.4116641118595652  0.4999833717589439
  0.5033175119893727  0.9116636791279689  0.5000154447026262
 
  0.00000000E+00  0.00000000E+00  0.00000000E+00
  0.00000000E+00  0.00000000E+00  0.00000000E+00
  0.00000000E+00  0.00000000E+00  0.00000000E+00
  0.00000000E+00  0.00000000E+00  0.00000000E+00
  0.00000000E+00  0.00000000E+00  0.00000000E+00
  0.00000000E+00  0.00000000E+00  0.00000000E+00
  0.00000000E+00  0.00000000E+00  0.00000000E+00
  0.00000000E+00  0.00000000E+00  0.00000000E+00
  0.00000000E+00  0.00000000E+00  0.00000000E+00
  0.00000000E+00  0.00000000E+00  0.00000000E+00
