 POSCAR with strain of 0.003            
   1.00000000000000     
     4.3933126568520002    0.0054779459560000    0.0000000000000000
     0.0053655973210000    4.2924778571899997    0.0000000000000000
     0.0000000000000000    0.0000000000000000   20.0000000000000000
   Sn   Se
     2     2
Direct
  0.5822803443587413  0.7511019999638796  0.5687603080088317
  0.0822803443587410  0.2511019999638799  0.4312396919911681
  0.0318236566412602  0.2488980000361201  0.5670047908516999
  0.5318236286412575  0.7488980000361204  0.4329952091483071
 
  0.00000000E+00  0.00000000E+00  0.00000000E+00
  0.00000000E+00  0.00000000E+00  0.00000000E+00
  0.00000000E+00  0.00000000E+00  0.00000000E+00
  0.00000000E+00  0.00000000E+00  0.00000000E+00
