K-Points
 0
Monkhorst Pack
 7  7  7
 0  0  0

