MoTe-1Tp epX-0.003_epY--0.012_dG-0                               
   1.00000000000000     
     6.3920113285516482    0.0000000000000000    0.0000000000000000
     0.0000000000000000    3.4069507185836696    0.0000000000000000
     0.0000000000000000    0.0000000000000000   20.0000000000000000
   Mo   Te
     2     4
Direct
  0.3178869412920595  0.2500000000000000  0.5071385125829486
  0.6823671827079416  0.7500000000000000  0.5159318824170562
  0.5768378556529529  0.2500000000000000  0.6149693355356660
  0.4234162693470451  0.7500000000000000  0.4081010294643365
  0.0682760061347841  0.7500000000000000  0.5860443976548713
  0.9319780958652155  0.2500000000000000  0.4370259673451314
 
  0.00000000E+00  0.00000000E+00  0.00000000E+00
  0.00000000E+00  0.00000000E+00  0.00000000E+00
  0.00000000E+00  0.00000000E+00  0.00000000E+00
  0.00000000E+00  0.00000000E+00  0.00000000E+00
  0.00000000E+00  0.00000000E+00  0.00000000E+00
  0.00000000E+00  0.00000000E+00  0.00000000E+00
