SnSe-0.02                               
   1.00000000000000     
     4.2924778571900175    0.0000000000000000    0.0000000000000000
     0.0000000000000000    4.3823567649391526    0.0000000000000000
     0.0000000000000000    0.0000000000000000   20.0000000000000000
   Sn   Se
     2     2
Direct
  0.7500000000000000  0.5812433581636114  0.5887431414167281
  0.2500000000000000  0.0812433581636114  0.4512568585832781
  0.2500000000000000  0.0328606428363898  0.5870738664356452
  0.7500000000000000  0.5328606148363875  0.4529261335643682
 
  0.00000000E+00  0.00000000E+00  0.00000000E+00
  0.00000000E+00  0.00000000E+00  0.00000000E+00
  0.00000000E+00  0.00000000E+00  0.00000000E+00
  0.00000000E+00  0.00000000E+00  0.00000000E+00
