 POSCAR with strain of 0.005
    1.000000
      4.404268548764      0.010955891912      0.000000000000
      0.010731194643      4.292477857190      0.000000000000
      0.000000000000      0.000000000000     20.000000000000
   Sn   Se
    2    2
DIRECT
    0.5812433581636114    0.7500000000000000    0.5687431414167250    Sn1
    0.0812433581636114    0.2500000000000000    0.4312568585832750    Sn2
    0.0328606428363898    0.2500000000000000    0.5670738664356421    Se1
    0.5328606148363875    0.7500000000000000    0.4329261335643650    Se2
