SnSe-0.20
 1.0000000000000000
     4.2924778571900175    0.0000000000000000    0.0000000000000000
     0.0000000000000000    4.3823567649391526    0.0000000000000000
     0.0000000000000000    0.0000000000000000   20.0000000000000000
 Sn  Se 
   2   2
Direct
  0.7500000000000000  0.5812433581636114  0.7687431414167251
  0.2500000000000000  0.0812433581636114  0.6312568585832751
  0.2500000000000000  0.0328606428363898  0.7670738664356421
  0.7500000000000000  0.5328606148363875  0.6329261335643651
