B  O                                    
   1.00000000000000     
     6.6844658984002470    0.0000000000000000    0.0000000000000000
     0.0000000000000000    4.4344468463119435    0.0000000000000000
     0.0000000000000000    0.0000000000000000   23.7642002300000037
   B    O 
     4     6
Direct
  0.1703371411732080  0.3030061324441889  0.5267136499360338
  0.8362490604874737  0.3030050937060779  0.4732767002853540
  0.6703354415980796  0.8030055912706563  0.4732854016986024
  0.3362495431250894  0.8030066470133045  0.5267222196788091
  0.6864635222792870  0.5010097588773442  0.4597622472611106
  0.3201045643936282  0.5010110960903112  0.5402433976246553
  0.1864624382599587  0.0010119132573303  0.5402365982532755
  0.8201047085962648  0.0010111128286431  0.4597554991242883
  0.0033106604146497  0.4135108020257048  0.4999864411229561
  0.5033115551609277  0.9135118634382612  0.5000122243755299
 
  0.00000000E+00  0.00000000E+00  0.00000000E+00
  0.00000000E+00  0.00000000E+00  0.00000000E+00
  0.00000000E+00  0.00000000E+00  0.00000000E+00
  0.00000000E+00  0.00000000E+00  0.00000000E+00
  0.00000000E+00  0.00000000E+00  0.00000000E+00
  0.00000000E+00  0.00000000E+00  0.00000000E+00
  0.00000000E+00  0.00000000E+00  0.00000000E+00
  0.00000000E+00  0.00000000E+00  0.00000000E+00
  0.00000000E+00  0.00000000E+00  0.00000000E+00
  0.00000000E+00  0.00000000E+00  0.00000000E+00
