KMesh Grid
0
Mp grid
6 6 1
0.0  0.0  0.0
