3x3-SnSe-with-Sn+Se-vacancy             
   1.00000000000000     
    12.9633065133165779    0.0000000000000000    0.0000000000000000
     0.0000000000000000   12.9312752937432514    0.0000000000000000
     0.0000000000000000    0.0000000000000000   20.0000000000000000
   Sn   Se
    17    17
Direct
  0.1786552203421345  0.2399916982779483  0.1338470607256636
  0.0247549726338291  0.0847685636886726  0.9987097647719620
  0.1786552290959983  0.5933416282916960  0.1338470417415399
  0.0275216104318878  0.4166666663907074  0.9986461081974363
  0.1922807283390739  0.9166666636435455  0.1360562075691176
  0.0247549693617828  0.7485647715104488  0.9987097709071487
  0.5289490014865419  0.2426723031125422  0.1342890431680969
  0.3576323292757667  0.0866612599723788  0.9987729742502024
  0.5289489955518554  0.5906610246142384  0.1342890261814991
  0.5166787874360029  0.9166666659102289  0.1362514305023288
  0.3576323306011538  0.7466720810755603  0.9987729556009943
  0.8545733256271651  0.2549771435236039  0.1361158676236061
  0.6846050289629824  0.0887921666203067  0.9991257928460465
  0.8545733258103736  0.5783561909003115  0.1361158800416672
  0.6871488256015911  0.4166666677529839  0.9988326714471382
  0.8536205636282921  0.9166666641156316  0.1346972455668471
  0.6846050337198997  0.7445411709341768  0.9991257986077751
  0.0205016600045071  0.0887575597576417  0.1376692125523301
  0.1803385997649206  0.2476170226477780  0.0007184222394750
  0.0146373569541222  0.4166666632622640  0.1352348980086570
  0.1803385919451315  0.5857163115598746  0.0007184028695913
  0.0205016693162033  0.7445757664735677  0.1376692220209906
  0.1822850292719869  0.9166666660936909  0.0007050895879750
  0.3484328245284032  0.0824775837877286  0.1354174158667199
  0.5213874580810192  0.2445749551782138  0.0012006821521254
  0.5213874629848668  0.5887583821289292  0.0012006630475159
  0.3484328218282127  0.7508557444532070  0.1354173961381454
  0.5146169338449861  0.9166666644537479  0.0008677316543177
  0.6800840001424439  0.0848864901185940  0.1380956587886458
  0.8480963289585405  0.2506922623035741  0.0007543320028246
  0.6832105060571660  0.4166666661919620  0.1355608961049349
  0.8480963295575784  0.5826410682548571  0.0007543475861936
  0.6800839965082873  0.7484468328522550  0.1380956687896580
  0.8519008959387413  0.9166666716444551  0.0042739676408198
