 POSCAR with strain of 0.010            
   1.00000000000000     
     4.3823567649389998    0.0000000000000000    0.0000000000000000
     0.0000000000000000    4.3354026357619997    0.0000000000000000
     0.0000000000000000    0.0000000000000000   20.0000000000000000
   Sn   Se
     2     2
Direct
  0.5828560649247372  0.7500000067781749  0.5685656259257980
  0.0828560653312722  0.2500000101355346  0.4314347323222619
  0.0312479448426447  0.2499999916054070  0.5670359215113906
  0.5312478989013460  0.7499999914808831  0.4329637202405569
 
  0.00000000E+00  0.00000000E+00  0.00000000E+00
  0.00000000E+00  0.00000000E+00  0.00000000E+00
  0.00000000E+00  0.00000000E+00  0.00000000E+00
  0.00000000E+00  0.00000000E+00  0.00000000E+00
