SnSe-0.3
 1.0000000000000000
     4.2924778571900175    0.0000000000000000    0.0000000000000000
     0.0000000000000000    4.3823567649391526    0.0000000000000000
     0.0000000000000000    0.0000000000000000   20.0000000000000000
 Sn  Se 
   2   2
Direct
  0.7500000000000000  0.8812433581636117  0.5687431414167269
  0.2500000000000000  0.3812433581636116  0.4312568585832732
  0.2500000000000000  0.3328606428363897  0.5670738664356403
  0.7500000000000000  0.8328606148363874  0.4329261335643668
