Graphene With Sodium                    
   1.00000000000000     
     9.8837100882445608    0.0000000000000000    0.0000000000000000
     4.9418551374250468    8.5652713064778645    0.0000000000000000
     0.0000000000000000    0.0000000000000000   20.0000000000000000
   C    Na
    32     2
Direct
  0.0834195451261072  0.0832428596384786  0.4983617089151790
  0.0835548952404413  0.3329119200051604  0.4983399936744544
  0.0830449606831624  0.5835437110156368  0.4983109788015699
  0.0831243903032858  0.8337757713359707  0.4984029540866010
  0.3333594615798508  0.0832433231628779  0.4983625780752104
  0.3335685404047197  0.3328852145861246  0.4983486343886595
  0.3334355583956738  0.5835442342445769  0.4982998991653295
  0.3332135983515132  0.8335968794698561  0.4983126732013269
  0.5834198508017213  0.0832422388376111  0.4983605016431955
  0.5835551338688288  0.3329112982886125  0.4983303036226526
  0.5830445483944150  0.5835443070070304  0.4983025274425565
  0.5831238644541519  0.8337756670952022  0.4984034033683172
  0.8333597065730107  0.0832426579457269  0.4983606870136527
  0.8335679638427753  0.3328851785961379  0.4983482170471978
  0.8334355749337121  0.5835437177929040  0.4983087763090109
  0.8332135527625758  0.8335968341389227  0.4983155866064055
  0.1667794066010595  0.1664268010236225  0.4983162740416106
  0.1665574991796483  0.4164798005029121  0.4983093468623224
  0.1664249540958317  0.6671384264882004  0.4983473441947104
  0.1666332156342486  0.9167810203590179  0.4983602876769418
  0.4168690402667267  0.1662479974254642  0.4984040361308137
  0.4169484778906476  0.4164791636824698  0.4983028609679518
  0.4164379103818973  0.6671123128986766  0.4983296502015882
  0.4165730685053722  0.9167814151644766  0.4983601757264779
  0.6667793615648935  0.1664267565772785  0.4983133634084912
  0.6665575184963912  0.4164792834917252  0.4983004872808537
  0.6664243770598721  0.6671383902339540  0.4983477822130593
  0.6666334592917851  0.9167803571563248  0.4983621803682389
  0.9168685153262077  0.1662478925450788  0.4984035952335089
  0.9169480644497384  0.4164797614976527  0.4983113293617195
  0.9164381470028915  0.6671116918454383  0.4983393420233734
  0.9165733739284129  0.9167807933405298  0.4983613792369747
  0.7498665576446771  0.5000159782060870  0.6222517897380494
  0.2501288059637231  0.5000542764002536  0.6222517179720065
 
  0.00000000E+00  0.00000000E+00  0.00000000E+00
  0.00000000E+00  0.00000000E+00  0.00000000E+00
  0.00000000E+00  0.00000000E+00  0.00000000E+00
  0.00000000E+00  0.00000000E+00  0.00000000E+00
  0.00000000E+00  0.00000000E+00  0.00000000E+00
  0.00000000E+00  0.00000000E+00  0.00000000E+00
  0.00000000E+00  0.00000000E+00  0.00000000E+00
  0.00000000E+00  0.00000000E+00  0.00000000E+00
  0.00000000E+00  0.00000000E+00  0.00000000E+00
  0.00000000E+00  0.00000000E+00  0.00000000E+00
  0.00000000E+00  0.00000000E+00  0.00000000E+00
  0.00000000E+00  0.00000000E+00  0.00000000E+00
  0.00000000E+00  0.00000000E+00  0.00000000E+00
  0.00000000E+00  0.00000000E+00  0.00000000E+00
  0.00000000E+00  0.00000000E+00  0.00000000E+00
  0.00000000E+00  0.00000000E+00  0.00000000E+00
  0.00000000E+00  0.00000000E+00  0.00000000E+00
  0.00000000E+00  0.00000000E+00  0.00000000E+00
  0.00000000E+00  0.00000000E+00  0.00000000E+00
  0.00000000E+00  0.00000000E+00  0.00000000E+00
  0.00000000E+00  0.00000000E+00  0.00000000E+00
  0.00000000E+00  0.00000000E+00  0.00000000E+00
  0.00000000E+00  0.00000000E+00  0.00000000E+00
  0.00000000E+00  0.00000000E+00  0.00000000E+00
  0.00000000E+00  0.00000000E+00  0.00000000E+00
  0.00000000E+00  0.00000000E+00  0.00000000E+00
  0.00000000E+00  0.00000000E+00  0.00000000E+00
  0.00000000E+00  0.00000000E+00  0.00000000E+00
  0.00000000E+00  0.00000000E+00  0.00000000E+00
  0.00000000E+00  0.00000000E+00  0.00000000E+00
  0.00000000E+00  0.00000000E+00  0.00000000E+00
  0.00000000E+00  0.00000000E+00  0.00000000E+00
  0.00000000E+00  0.00000000E+00  0.00000000E+00
  0.00000000E+00  0.00000000E+00  0.00000000E+00
