 POSCAR with strain of -0.007           
   1.00000000000000     
     4.3823567649389998    0.0000000000000000    0.0000000000000000
     0.0000000000000000    4.2602842732610000    0.0000000000000000
     0.0000000000000000    0.0000000000000000   20.0000000000000000
   Sn   Se
     2     2
Direct
  0.5799368065879048  0.7499999992212371  0.5688981604531448
  0.0799368010454385  0.2499999986578494  0.4311018519040132
  0.0341671838976442  0.2499999995629125  0.5670633405339996
  0.5341671824690124  0.7500000025580009  0.4329366471088494
 
  0.00000000E+00  0.00000000E+00  0.00000000E+00
  0.00000000E+00  0.00000000E+00  0.00000000E+00
  0.00000000E+00  0.00000000E+00  0.00000000E+00
  0.00000000E+00  0.00000000E+00  0.00000000E+00
