 POSCAR with strain of -0.003           
   1.00000000000000     
     4.3714008730270004    0.0000000000000000    0.0000000000000000
     0.0000000000000000    4.2924778571899997    0.0000000000000000
     0.0000000000000000    0.0000000000000000   20.0000000000000000
   Sn   Se
     2     2
Direct
  0.5799408050469498  0.7499999999595232  0.5687163360492106
  0.0799407553692569  0.2499999998582770  0.4312839853058038
  0.0341631819815519  0.2499999993365023  0.5671360558931647
  0.5341632316022412  0.7500000008456976  0.4328636227518283
 
  0.00000000E+00  0.00000000E+00  0.00000000E+00
  0.00000000E+00  0.00000000E+00  0.00000000E+00
  0.00000000E+00  0.00000000E+00  0.00000000E+00
  0.00000000E+00  0.00000000E+00  0.00000000E+00
