Generated by VASPKIT code               
   1.00000000000000     
     3.3635995388000000    0.0000000000000000    0.0000000000000000
     0.0000000000000000    5.8492295303079995    0.0000000000000000
     0.0000000000000000    0.0000000000000000   20.2525882720999988
   Mo   S    Te
     2     2     2
Direct
  0.4999999903515732  0.1664855456348138  0.5070321739304516
 -0.0000000109786259  0.6664855318019426  0.5070322098379042
  0.4999999860409609  0.8334347319415631  0.5796510023687453
 -0.0000000103003018  0.3334347469825833  0.5796509822727922
  0.4999999934034012  0.8334128130141123  0.4133167438809216
 -0.0000000085170125  0.3334126626249942  0.4133167697091681
 
  0.00000000E+00  0.00000000E+00  0.00000000E+00
  0.00000000E+00  0.00000000E+00  0.00000000E+00
  0.00000000E+00  0.00000000E+00  0.00000000E+00
  0.00000000E+00  0.00000000E+00  0.00000000E+00
  0.00000000E+00  0.00000000E+00  0.00000000E+00
  0.00000000E+00  0.00000000E+00  0.00000000E+00
