S  Pb                                   
   1.00000000000000     
     4.1822670133276212    0.0000000000000000    0.0000000000000000
     0.0000000000000000    8.4907620797994827    0.0000000000000000
     0.0000000000000000    0.0000000000000000   27.8166048499999974
   S    Pb
     6     6
Direct
  0.5000000363663873  0.3901309626058797  0.6047509033705952
  0.4999999829110665  0.3901308925097748  0.3952491196941498
  0.4999999243495753  0.8901309753825625  0.3952491172005536
  0.5000000868332795  0.8901309157819117  0.6047509017122675
  0.9999999946700694  0.6517035786994987  0.4999999984516033
  0.9999999951030102  0.1517035956773098  0.4999999873063116
  0.9999999583873012  0.1647522705996683  0.6039787169792986
  0.0000000383150593  0.1647523680649053  0.3960212760023525
  0.9999999622373755  0.6647522715633916  0.3960212814937130
  0.0000000282443032  0.6647523608720954  0.6039787056604298
  0.4999999931741959  0.4046521353045383  0.4999999835693318
  0.4999999913618354  0.9046520376945072  0.5000000092783777
 
  0.00000000E+00  0.00000000E+00  0.00000000E+00
  0.00000000E+00  0.00000000E+00  0.00000000E+00
  0.00000000E+00  0.00000000E+00  0.00000000E+00
  0.00000000E+00  0.00000000E+00  0.00000000E+00
  0.00000000E+00  0.00000000E+00  0.00000000E+00
  0.00000000E+00  0.00000000E+00  0.00000000E+00
  0.00000000E+00  0.00000000E+00  0.00000000E+00
  0.00000000E+00  0.00000000E+00  0.00000000E+00
  0.00000000E+00  0.00000000E+00  0.00000000E+00
  0.00000000E+00  0.00000000E+00  0.00000000E+00
  0.00000000E+00  0.00000000E+00  0.00000000E+00
  0.00000000E+00  0.00000000E+00  0.00000000E+00
