Se Sn                                   
   1.00000000000000     
     4.4127351106770618    0.0000062138715948    0.0000000000000000
     0.0000060631536394    4.2939103844741648    0.0000000000000000
     0.0000000000000000    0.0000000000000000   24.7585268899999988
   Se   Sn
     2     2
Direct
  0.0689899757566959  0.9999102547293612  0.4459739714992794
  0.5689812383580056  0.4999107474500795  0.5540306999099492
  0.1233312465971134  0.9999138341878098  0.5555687799357130
  0.6233277749957040  0.4999139487798867  0.4444323345404933
 
  0.00000000E+00  0.00000000E+00  0.00000000E+00
  0.00000000E+00  0.00000000E+00  0.00000000E+00
  0.00000000E+00  0.00000000E+00  0.00000000E+00
  0.00000000E+00  0.00000000E+00  0.00000000E+00
