Generated by VASPKIT code               
   1.00000000000000     
     3.3635995388000000    0.0000000000000000    0.0000000000000000
     0.0000000000000000    5.7967961978649996    0.0000000000000000
     0.0000000000000000    0.0000000000000000   20.2525882720999988
   Mo   S    Te
     2     2     2
Direct
  0.4999999903266508  0.1669009550024894  0.5070538666742639
 -0.0000000109762360  0.6669011044018999  0.5070536724381309
  0.4999999858905770  0.8332004703201138  0.5799243224083894
 -0.0000000105266301  0.3332002228345613  0.5799243194059351
  0.4999999935447821  0.8332314766492257  0.4130218765136484
 -0.0000000082591487  0.3332318027917191  0.4130218245596152
 
  0.00000000E+00  0.00000000E+00  0.00000000E+00
  0.00000000E+00  0.00000000E+00  0.00000000E+00
  0.00000000E+00  0.00000000E+00  0.00000000E+00
  0.00000000E+00  0.00000000E+00  0.00000000E+00
  0.00000000E+00  0.00000000E+00  0.00000000E+00
  0.00000000E+00  0.00000000E+00  0.00000000E+00
