&CONTROL
    calculation   =  "scf"
    nstep         =  0
    pseudo_dir    =  "./"
    outdir        =  "./wfc-out"  
    disk_io       =  "None"
    max_seconds   =  10
/

&SYSTEM
    ecutrho     =  500
    ecutwfc     =  60
    ibrav       =  0
    nat         =  80
    ntyp        =  2
    occupations =  smearing
    smearing    = "gaussian"
    degauss     =  0.01
    nosym       = .FALSE.    ! Default is .FALSE.
    nosym_evc   = .FALSE.    ! Default is .FALSE.
    noinv       = .FALSE.    ! Default is .FALSE.
/

&ELECTRONS
    conv_thr         =  1.0D-10
    electron_maxstep =  -1
    mixing_beta      =  7.00000e-01
    startingpot      = "file"
    startingwfc      =  "random"
/

K_POINTS (automatic)
 5 5 1 0 0 0


ATOMIC_SPECIES
B      10.81  B_pbe_v1.01.uspp.F.UPF
N      14.00674  N.oncvpsp.upf

CELL_PARAMETERS angstrom
17.31826782230000 0.00000000000000 0.00000000000000
0.00000000000000 12.49830436710000 0.00000000000000
0.00000000000000 0.00000000000000 20.00000000000000

ATOMIC_POSITIONS crystal
B 0.0833360330 0.0000000000 0.5000000000 
B 0.0833360330 0.2000000030 0.5000000000 
B 0.0833360330 0.4000000060 0.5000000000 
B 0.0833360330 0.6000000240 0.5000000000 
B 0.0833360330 0.8000000120 0.5000000000 
B 0.3333360250 0.0000000000 0.5000000000 
B 0.3333360250 0.2000000030 0.5000000000 
B 0.3333360250 0.4000000060 0.5000000000 
B 0.3333360250 0.6000000240 0.5000000000 
B 0.3333360250 0.8000000120 0.5000000000 
B 0.5833360550 0.0000000000 0.5000000000 
B 0.5833360550 0.2000000030 0.5000000000 
B 0.5833360550 0.4000000060 0.5000000000 
B 0.5833360550 0.6000000240 0.5000000000 
B 0.5833360550 0.8000000120 0.5000000000 
B 0.8333360550 0.0000000000 0.5000000000 
B 0.8333360550 0.2000000030 0.5000000000 
B 0.8333360550 0.4000000060 0.5000000000 
B 0.8333360550 0.6000000240 0.5000000000 
B 0.8333360550 0.8000000120 0.5000000000 
B 0.2083359660 0.1000000010 0.5000000000 
B 0.2083359660 0.3000000120 0.5000000000 
B 0.2083359660 0.5000000000 0.5000000000 
B 0.2083359660 0.6999999880 0.5000000000 
B 0.2083359660 0.8999999760 0.5000000000 
B 0.4583359660 0.1000000010 0.5000000000 
B 0.4583359660 0.3000000120 0.5000000000 
B 0.4583359660 0.5000000000 0.5000000000 
B 0.4583359660 0.6999999880 0.5000000000 
B 0.4583359660 0.8999999760 0.5000000000 
B 0.7083359960 0.1000000010 0.5000000000 
B 0.7083359960 0.3000000120 0.5000000000 
B 0.7083359960 0.5000000000 0.5000000000 
B 0.7083359960 0.6999999880 0.5000000000 
B 0.7083359960 0.8999999760 0.5000000000 
B 0.9583359960 0.1000000010 0.5000000000 
B 0.9583359960 0.3000000120 0.5000000000 
B 0.9583359960 0.5000000000 0.5000000000 
B 0.9583359960 0.6999999880 0.5000000000 
B 0.9583359960 0.8999999760 0.5000000000 
N 0.0000035990 0.0000000000 0.5000000000 
N 0.0000035990 0.2000000030 0.5000000000 
N 0.0000035990 0.4000000060 0.5000000000 
N 0.0000035990 0.6000000240 0.5000000000 
N 0.0000035990 0.8000000120 0.5000000000 
N 0.2500036060 0.0000000000 0.5000000000 
N 0.2500036060 0.2000000030 0.5000000000 
N 0.2500036060 0.4000000060 0.5000000000 
N 0.2500036060 0.6000000240 0.5000000000 
N 0.2500036060 0.8000000120 0.5000000000 
N 0.5000035760 0.0000000000 0.5000000000 
N 0.5000035760 0.2000000030 0.5000000000 
N 0.5000035760 0.4000000060 0.5000000000 
N 0.5000035760 0.6000000240 0.5000000000 
N 0.5000035760 0.8000000120 0.5000000000 
N 0.7500035760 0.0000000000 0.5000000000 
N 0.7500035760 0.2000000030 0.5000000000 
N 0.7500035760 0.4000000060 0.5000000000 
N 0.7500035760 0.6000000240 0.5000000000 
N 0.7500035760 0.8000000120 0.5000000000 
N 0.1250036510 0.1000000010 0.5000000000 
N 0.1250036510 0.3000000120 0.5000000000 
N 0.1250036510 0.5000000000 0.5000000000 
N 0.1250036510 0.6999999880 0.5000000000 
N 0.1250036510 0.8999999760 0.5000000000 
N 0.3750036360 0.1000000010 0.5000000000 
N 0.3750036360 0.3000000120 0.5000000000 
N 0.3750036360 0.5000000000 0.5000000000 
N 0.3750036360 0.6999999880 0.5000000000 
N 0.3750036360 0.8999999760 0.5000000000 
N 0.6250036360 0.1000000010 0.5000000000 
N 0.6250036360 0.3000000120 0.5000000000 
N 0.6250036360 0.5000000000 0.5000000000 
N 0.6250036360 0.6999999880 0.5000000000 
N 0.6250036360 0.8999999760 0.5000000000 
N 0.8750036360 0.1000000010 0.5000000000 
N 0.8750036360 0.3000000120 0.5000000000 
N 0.8750036360 0.5000000000 0.5000000000 
N 0.8750036360 0.6999999880 0.5000000000 
N 0.8750036360 0.8999999760 0.5000000000 
