Se Sn                                   
   1.00000000000000     
     4.3777134034494658    0.0000062138715948    0.0000000000000000
     0.0000060631536394    4.3282616675499579    0.0000000000000000
     0.0000000000000000    0.0000000000000000   24.7585268899999988
   Se   Sn
     2     2
Direct
  0.0711258438029745  0.9999121084303084  0.4458270058633573
  0.5711504024375316  0.4999091909375153  0.5541750107238101
  0.1211709413716520  0.9999141609202056  0.5554000818351952
  0.6211830480953608  0.4999133248591079  0.4446036874630792
 
  0.00000000E+00  0.00000000E+00  0.00000000E+00
  0.00000000E+00  0.00000000E+00  0.00000000E+00
  0.00000000E+00  0.00000000E+00  0.00000000E+00
  0.00000000E+00  0.00000000E+00  0.00000000E+00
