&CONTROL
    calculation   =  "scf"
    nstep         =  0
    pseudo_dir    =  "./"
    outdir        =  "./wfc-out"  
    disk_io       =  "None"
    max_seconds   =  10
/

&SYSTEM
    ecutrho     =  500
    ecutwfc     =  60
    ibrav       =  0
    nat         =  2
    ntyp        =  1
    occupations =  smearing
    smearing    = "gaussian"
    degauss     =  0.01
    nosym       = .TRUE.    ! Default is .FALSE.
    nosym_evc   = .FALSE.    ! Default is .FALSE.
    noinv       = .FALSE.    ! Default is .FALSE.
/

&ELECTRONS
    conv_thr         =  1.0D-10
    electron_maxstep =  -1
    mixing_beta      =  7.00000e-01
    startingpot      = "file"
    startingwfc      =  "random"
/

K_POINTS (automatic)
5 5 1 0 0 0


ATOMIC_SPECIES
C      12.01  C.pbe-n-kjpaw_psl.1.0.0.UPF

CELL_PARAMETERS angstrom
        2.4677243233         0.0000000000         0.0000000000
       -1.2338624462         2.1371117892         0.0000000000
        0.0000000000         0.0000000000         8.6850376129

ATOMIC_POSITIONS crystal
C     0.000000000         1.000000000         0.750000000
C     0.333332986         0.666666985         0.750000000