B  O                                    
   1.00000000000000     
     6.6579402400732617    0.0000000000000000    0.0000000000000000
     0.0000000000000000    4.4344468463119435    0.0000000000000000
     0.0000000000000000    0.0000000000000000   23.7642002300000037
   B    O 
     4     6
Direct
  0.1703502740594018  0.3029651170878083  0.5270410157665566
  0.8362337796768813  0.3029664260784131  0.4729474792666437
  0.6703526809584730  0.8029641436475075  0.4729573616543092
  0.3362327720387910  0.8029667726851599  0.5270513330278632
  0.6861554548964506  0.5011204746035247  0.4592667871459284
  0.3204107003889192  0.5011185236730924  0.5407373090042995
  0.1861539199710762  0.0011188765711978  0.5407324325708629
  0.8204097174708664  0.0011194483730605  0.4592619549471166
  0.0033149143443012  0.4133739842111126  0.4999842207843912
  0.5033144216833989  0.9133762440209452  0.5000144851926507
 
  0.00000000E+00  0.00000000E+00  0.00000000E+00
  0.00000000E+00  0.00000000E+00  0.00000000E+00
  0.00000000E+00  0.00000000E+00  0.00000000E+00
  0.00000000E+00  0.00000000E+00  0.00000000E+00
  0.00000000E+00  0.00000000E+00  0.00000000E+00
  0.00000000E+00  0.00000000E+00  0.00000000E+00
  0.00000000E+00  0.00000000E+00  0.00000000E+00
  0.00000000E+00  0.00000000E+00  0.00000000E+00
  0.00000000E+00  0.00000000E+00  0.00000000E+00
  0.00000000E+00  0.00000000E+00  0.00000000E+00
