B  O                                    
   1.00000000000000     
     6.6579402400732617    0.0000000000000000    0.0000000000000000
     0.0000000000000000    4.4344468463119435    0.0000000000000000
     0.0000000000000000    0.0000000000000000   23.7642002300000037
   B    O 
     4     6
Direct
  0.1703502740594014  0.3029651170878073  0.5270410157665550
  0.8362337796768816  0.3029664260784146  0.4729474792666429
  0.6703526809584740  0.8029641436475048  0.4729573616543076
  0.3362327720387901  0.8029667726851588  0.5270513330278656
  0.6861554548964480  0.5011204746035232  0.4592667871459299
  0.3204107003889197  0.5011185236730950  0.5407373090042966
  0.1861539199710794  0.0011188765712005  0.5407324325708608
  0.8204097174708691  0.0011194483730595  0.4592619549471139
  0.0033149143443041  0.4133739842111158  0.4999842207843900
  0.5033144216833990  0.9133762440209431  0.5000144851926533
 
  0.00000000E+00  0.00000000E+00  0.00000000E+00
  0.00000000E+00  0.00000000E+00  0.00000000E+00
  0.00000000E+00  0.00000000E+00  0.00000000E+00
  0.00000000E+00  0.00000000E+00  0.00000000E+00
  0.00000000E+00  0.00000000E+00  0.00000000E+00
  0.00000000E+00  0.00000000E+00  0.00000000E+00
  0.00000000E+00  0.00000000E+00  0.00000000E+00
  0.00000000E+00  0.00000000E+00  0.00000000E+00
  0.00000000E+00  0.00000000E+00  0.00000000E+00
  0.00000000E+00  0.00000000E+00  0.00000000E+00
