Te Mo 
 1.0000000000000000
     6.1481026062679955    0.0000000000000000    0.0000000000000000
     0.0000000000000000    3.5494708513073139    0.0000000000000000
     0.0000000000000000    0.0000000000000000   28.0000000000000000
 Te  Mo 
   4   2
Direct
  0.6666587058419956  0.0000000000000000  0.4355161161375879
  0.1666587058419954  0.5000000000000000  0.4355161161375879
  0.6666587130002180  0.0000000000000000  0.5644838838624120
  0.1666587130002180  0.5000000000000000  0.5644838838624120
  0.0000000000000000  0.0000000000000000  0.4999999838977965
  0.5000000589999942  0.5000000000000000  0.4999999838977965
