&CONTROL
    calculation   = "nscf"
    etot_conv_thr =  1.0D-6
    nstep         =  100
    pseudo_dir    =  "./"
    outdir        =  "./wfc-out"    
    lberry        = .true.
    gdir          = 1
    nppstr        = 15
/

&SYSTEM
    ecutrho     =  600
    ecutwfc     =  80
    ibrav       =  0
    nat         =  4
    ntyp        =  2
    occupations =  fixed
    degauss     =  0.00
/

&ELECTRONS
    conv_thr         =  1.0D-10
    electron_maxstep =  200
    mixing_beta      =  7.00000e-01
/

K_POINTS (automatic)
 15  15  1  0 0 0

ATOMIC_SPECIES
Sn     118.71  Sn_pbe_v1.uspp.F.UPF
Se      78.96  Se_pbe_v1.uspp.F.UPF

CELL_PARAMETERS (angstrom)
4.397564195 0.000000000 0.000000000
   0.000000000   4.287656327   0.000000000
   0.000000000   0.000000000  20.000000000

ATOMIC_POSITIONS (crystal)
Sn            0.5839904894        0.7500000000        0.1445562583
Sn            0.0839890776        0.2500000000        0.0065896055
Se            0.0301155432        0.2500000000        0.1423192465
Se            0.5301128638        0.7500000000        0.0088249436
