K-Spacing Value to Generate K-Mesh: 0.025
0
Monkhorst-Pack
   9   5   1
0.0  0.0  0.0
