Mo Te 
 1.0000000000000000
     6.3940267105187152    0.0000000000000000    0.0000000000000000
     0.0000000000000000    3.4074920172550214    0.0000000000000000
     0.0000000000000000    0.0000000000000000   28.0000000000000000
   2   4
Cartesian
  0.0000000000000000  0.0000000000000000 14.0000003024626949
  3.1970137325068966  1.7037460086275107 14.0000003024626949
  4.2986902884281903  0.0000000000000000 12.1957946058710434
  1.1016769331688323  1.7037460086275107 12.1957946058710434
  4.2986902715257420  0.0000000000000000 15.8042053941289566
  1.1016769162663838  1.7037460086275107 15.8042053941289566
