K-Spacing Value to Generate K-Mesh: 0.025
0
Gamma
   6   9   1
0.0  0.0  0.0
