 SnSe-Monolayer                         
   1.00000000000000     
     4.3911214784690307    0.0000000000000000    0.0000000000000000
     0.0000000000000000    4.2924778571900175    0.0000000000000000
     0.0000000000000000    0.0000000000000000   20.0000000000000000
   Sn   Se
     2     2
Direct
  0.5820421479044100  0.7500000000000000  0.5687197064174470
  0.0820421479044100  0.2500000000000000  0.4312802935825601
  0.0320618530955912  0.2500000000000000  0.5670603944475658
  0.5320618250955889  0.7500000000000000  0.4329396055524413
 
  0.00000000E+00  0.00000000E+00  0.00000000E+00
  0.00000000E+00  0.00000000E+00  0.00000000E+00
  0.00000000E+00  0.00000000E+00  0.00000000E+00
  0.00000000E+00  0.00000000E+00  0.00000000E+00
