 POSCAR with strain of 0.005            
   1.00000000000000     
     4.4042685487639996    0.0000000000000000    0.0000000000000000
     0.0000000000000000    4.2924778571899997    0.0000000000000000
     0.0000000000000000    0.0000000000000000   20.0000000000000000
   Sn   Se
     2     2
Direct
  0.5833350264084408  0.7500000009556843  0.5687900975893749
  0.0833350317090927  0.2499999988635320  0.4312105336166878
  0.0307689909461762  0.2499999974078380  0.5669327165317952
  0.5307689249362900  0.7500000027729457  0.4330666522621492
 
  0.00000000E+00  0.00000000E+00  0.00000000E+00
  0.00000000E+00  0.00000000E+00  0.00000000E+00
  0.00000000E+00  0.00000000E+00  0.00000000E+00
  0.00000000E+00  0.00000000E+00  0.00000000E+00
