Se Sn                                   
   1.00000000000000     
     4.4127351106770618    0.0000062138715948    0.0000000000000000
     0.0000060631536394    4.2939103844741648    0.0000000000000000
     0.0000000000000000    0.0000000000000000   24.7585268899999988
   Se   Sn
     2     2
Direct
  0.0689899757566934  0.9999102547293646  0.4459739714992779
  0.5689812383580062  0.4999107474500804  0.5540306999099514
  0.1233312465971110  0.9999138341878080  0.5555687799357116
  0.6233277749957011  0.4999139487798843  0.4444323345404939
 
  0.00000000E+00  0.00000000E+00  0.00000000E+00
  0.00000000E+00  0.00000000E+00  0.00000000E+00
  0.00000000E+00  0.00000000E+00  0.00000000E+00
  0.00000000E+00  0.00000000E+00  0.00000000E+00
