Mo Te 
 1.0000000000000000
     6.3900000000000000    0.0000000000000000    0.0000000000000000
     0.0000000000000000    3.4000000000000000    0.0000000000000000
     0.0000000000000000    0.0000000000000000   20.0000000000000000
 Mo  Te 
   2   4
Direct
  0.0000000000000000  0.0000000000000000  0.5000031194154210
  0.5000000589999942  0.5000000000000000  0.5000031194154210
  0.6722978309359423  0.0000000000000000  0.4097928345858445
  0.1722978309359421  0.5000000000000000  0.4097928345858445
  0.6722978282924660  0.0000000000000000  0.5902133739987320
  0.1722978282924660  0.5000000000000000  0.5902133739987320
