SnSe-Monolayer
1.0
        4.2194027901         0.0000000000         0.0000000000
        0.0000000000         4.5240187645         0.0000000000
        0.0000000000         0.0000000000        20.0000000000
   Sn   Se
    2    2
Direct
     0.750000000         0.599720001         0.151099160
     0.250000000         0.099720001         0.000045867
     0.250000000         0.014384000         0.137554452
     0.750000000         0.514383972         0.013590575