Si2
1.0
5.46873 0 0
0 5.46873 0
0 0 5.46873
Si
8
Cartesian
  2.64525 2.72776 5.36497
  2.82558 5.45061 2.65767
  5.42863 2.75063 2.81626
  0.0336501 0.0195934 0.103901
  1.35621 1.22719 4.0259
  1.37913 3.9989 1.43872
  4.08746 1.50028 1.28699
  4.119 4.19994 4.18051
