 SnSe-Monolayer                         
   1.00000000000000     
     4.3560626243495175    0.0000000000000000    0.0000000000000000
     0.0000000000000000    4.2924778571900175    0.0000000000000000
     0.0000000000000000    0.0000000000000000   20.0000000000000000
   Sn   Se
     2     2
Direct
  0.5781445760947364  0.7500000000000000  0.5686884787193165
  0.0781445760947364  0.2500000000000000  0.4313115212806906
  0.0359594249052648  0.2500000000000000  0.5672313910775486
  0.5359593969052625  0.7500000000000000  0.4327686089224585
 
  0.00000000E+00  0.00000000E+00  0.00000000E+00
  0.00000000E+00  0.00000000E+00  0.00000000E+00
  0.00000000E+00  0.00000000E+00  0.00000000E+00
  0.00000000E+00  0.00000000E+00  0.00000000E+00
