 SnSe-Monolayer                         
   1.00000000000000     
     4.3472979108196395    0.0000000000000000    0.0000000000000000
     0.0000000000000000    4.2924778571900175    0.0000000000000000
     0.0000000000000000    0.0000000000000000   20.0000000000000000
   Sn   Se
     2     2
Direct
  0.5771148400675372  0.7500000000000000  0.5686549138128782
  0.0771148400675372  0.2500000000000000  0.4313450861871218
  0.0369891609324640  0.2500000000000000  0.5672941714095003
  0.5369891329324616  0.7500000000000000  0.4327058285905068
 
  0.00000000E+00  0.00000000E+00  0.00000000E+00
  0.00000000E+00  0.00000000E+00  0.00000000E+00
  0.00000000E+00  0.00000000E+00  0.00000000E+00
  0.00000000E+00  0.00000000E+00  0.00000000E+00
