B  O                                    
   1.00000000000000     
     6.6314145817462764    0.0000000000000000    0.0000000000000000
     0.0000000000000000    4.4344468463119435    0.0000000000000000
     0.0000000000000000    0.0000000000000000   23.7642002300000037
   B    O 
     4     6
Direct
  0.1703622480911093  0.3029258674555919  0.5273714198804456
  0.8362241876417187  0.3029285263270864  0.4726155111740127
  0.6703614376638996  0.8029267565390512  0.4726276192412016
  0.3362248001358452  0.8029287542958912  0.5273835673809870
  0.6858616064482064  0.5012396122193223  0.4587664400227922
  0.3206942681764673  0.5012467746935911  0.5412387488608843
  0.1858637499303839  0.0012414807652092  0.5412322306488448
  0.8206958290392947  0.0012454087132809  0.4587598066629042
  0.0033201074503211  0.4132044011898728  0.4999816831825470
  0.5033204009113206  0.9132024287529248  0.5000173523059956
 
  0.00000000E+00  0.00000000E+00  0.00000000E+00
  0.00000000E+00  0.00000000E+00  0.00000000E+00
  0.00000000E+00  0.00000000E+00  0.00000000E+00
  0.00000000E+00  0.00000000E+00  0.00000000E+00
  0.00000000E+00  0.00000000E+00  0.00000000E+00
  0.00000000E+00  0.00000000E+00  0.00000000E+00
  0.00000000E+00  0.00000000E+00  0.00000000E+00
  0.00000000E+00  0.00000000E+00  0.00000000E+00
  0.00000000E+00  0.00000000E+00  0.00000000E+00
  0.00000000E+00  0.00000000E+00  0.00000000E+00
