Mo Te                                   
   1.00000000000000     
     6.3940267105187152    0.0000000000000000    0.0000000000000000
     0.0000000000000000    3.4074920172550214    0.0000000000000000
     0.0000000000000000    0.0000000000000000   28.0000000000000000
   Mo   Te
     2     4
Direct
  1.0187624140919354  1.0436038391780773  0.4957945312165601
  0.3847223441924555  0.5541990020070460  0.5020373514920676
  0.6349647490424751  1.0372084867401559  0.4440463650934215
  0.1295789722895514  0.5356150578192561  0.4252666254581891
  0.7405247404437239  0.6880334642865501  0.5563244728921960
  0.2350555517310891  0.1652849572293546  0.5765306749700909
 
             NaN             NaN             NaN
             NaN             NaN             NaN
             NaN             NaN             NaN
             NaN             NaN             NaN
             NaN             NaN             NaN
             NaN             NaN             NaN
