POSCAR for slab defined by SURFACE card and Nslab and Vacuum_thickness_in_Angstrom in wt.in by WannierTools
1.0
   -2.069000   -3.583614    0.000000
    2.069000   -3.583614    0.000000
    0.000000   17.337477   69.280002
Bi    Se    
    12    18
Cartesian
    0.000000    0.306975   12.654027       Bi
    0.000000    2.696050   22.200694       Bi
    0.000000    5.085125   31.747361       Bi
    0.000000    7.474200   41.294028       Bi
    0.000000    9.863275   50.840695       Bi
    0.000000   12.252350   60.387362       Bi
    0.000000   -2.082101    8.892640       Bi
    0.000000    0.306974   18.439307       Bi
    0.000000    2.696049   27.985974       Bi
    0.000000    5.085124   37.532641       Bi
    0.000000    7.474199   47.079308       Bi
    0.000000    9.863274   56.625975       Bi
    0.000000    2.696051   10.773333       Se
    0.000000    5.085126   20.320000       Se
    0.000000    7.474201   29.866667       Se
    0.000000    9.863276   39.413334       Se
    0.000000   12.252351   48.960001       Se
    0.000000   14.641426   58.506668       Se
    0.000000    0.306975    7.126507       Se
    0.000000    2.696050   16.673174       Se
    0.000000    5.085125   26.219841       Se
    0.000000    7.474200   35.766508       Se
    0.000000    9.863275   45.313175       Se
    0.000000   12.252350   54.859842       Se
    0.000000   -2.082101   14.420160       Se
    0.000000    0.306974   23.966827       Se
    0.000000    2.696049   33.513494       Se
    0.000000    5.085124   43.060161       Se
    0.000000    7.474199   52.606828       Se
    0.000000    9.863274   62.153495       Se
