use_ws_distance = .true.
dis_num_iter = 200
auto_projections = .true.
bands_plot = .true.
exclude_bands = 1-50, 66-71

num_bands = 15
num_wann      = 15
num_iter      = 2000
#fermi_energy = 10.7216

# We turn off the disentanglement window
# and use SCDM 
#dis_win_max   =  15
#dis_froz_max  =  13
#dis_win_min   = 5   
#dis_froz_min  = 7


begin atoms_frac
 Bi 0.3990    0.3990    0.6970
 Bi 0.6010    0.6010    0.3030
 Se 0.0000    0.0000    0.5000
 Se 0.2060    0.2060    0.1180
 Se 0.7940    0.7940    0.8820
end atoms_frac

# We do not need this part
#begin projections
# Bi : px; py; pz
# Se : px; py; pz
#end projections


begin unit_cell_cart
-2.069  -3.583614  0.000000    
 2.069  -3.583614  0.000000
 0.000   2.389075  9.546667
end unit_cell_cart

mp_grid : 12 12 2

begin kpoints
  0.00000000  0.00000000  0.00000000 
  0.00000000  0.00000000  0.50000000 
  0.00000000  0.08333333  0.00000000 
  0.00000000  0.08333333  0.50000000 
  0.00000000  0.16666667  0.00000000 
  0.00000000  0.16666667  0.50000000 
  0.00000000  0.25000000  0.00000000 
  0.00000000  0.25000000  0.50000000 
  0.00000000  0.33333333  0.00000000 
  0.00000000  0.33333333  0.50000000 
  0.00000000  0.41666667  0.00000000 
  0.00000000  0.41666667  0.50000000 
  0.00000000  0.50000000  0.00000000 
  0.00000000  0.50000000  0.50000000 
  0.00000000  0.58333333  0.00000000 
  0.00000000  0.58333333  0.50000000 
  0.00000000  0.66666667  0.00000000 
  0.00000000  0.66666667  0.50000000 
  0.00000000  0.75000000  0.00000000 
  0.00000000  0.75000000  0.50000000 
  0.00000000  0.83333333  0.00000000 
  0.00000000  0.83333333  0.50000000 
  0.00000000  0.91666667  0.00000000 
  0.00000000  0.91666667  0.50000000 
  0.08333333  0.00000000  0.00000000 
  0.08333333  0.00000000  0.50000000 
  0.08333333  0.08333333  0.00000000 
  0.08333333  0.08333333  0.50000000 
  0.08333333  0.16666667  0.00000000 
  0.08333333  0.16666667  0.50000000 
  0.08333333  0.25000000  0.00000000 
  0.08333333  0.25000000  0.50000000 
  0.08333333  0.33333333  0.00000000 
  0.08333333  0.33333333  0.50000000 
  0.08333333  0.41666667  0.00000000 
  0.08333333  0.41666667  0.50000000 
  0.08333333  0.50000000  0.00000000 
  0.08333333  0.50000000  0.50000000 
  0.08333333  0.58333333  0.00000000 
  0.08333333  0.58333333  0.50000000 
  0.08333333  0.66666667  0.00000000 
  0.08333333  0.66666667  0.50000000 
  0.08333333  0.75000000  0.00000000 
  0.08333333  0.75000000  0.50000000 
  0.08333333  0.83333333  0.00000000 
  0.08333333  0.83333333  0.50000000 
  0.08333333  0.91666667  0.00000000 
  0.08333333  0.91666667  0.50000000 
  0.16666667  0.00000000  0.00000000 
  0.16666667  0.00000000  0.50000000 
  0.16666667  0.08333333  0.00000000 
  0.16666667  0.08333333  0.50000000 
  0.16666667  0.16666667  0.00000000 
  0.16666667  0.16666667  0.50000000 
  0.16666667  0.25000000  0.00000000 
  0.16666667  0.25000000  0.50000000 
  0.16666667  0.33333333  0.00000000 
  0.16666667  0.33333333  0.50000000 
  0.16666667  0.41666667  0.00000000 
  0.16666667  0.41666667  0.50000000 
  0.16666667  0.50000000  0.00000000 
  0.16666667  0.50000000  0.50000000 
  0.16666667  0.58333333  0.00000000 
  0.16666667  0.58333333  0.50000000 
  0.16666667  0.66666667  0.00000000 
  0.16666667  0.66666667  0.50000000 
  0.16666667  0.75000000  0.00000000 
  0.16666667  0.75000000  0.50000000 
  0.16666667  0.83333333  0.00000000 
  0.16666667  0.83333333  0.50000000 
  0.16666667  0.91666667  0.00000000 
  0.16666667  0.91666667  0.50000000 
  0.25000000  0.00000000  0.00000000 
  0.25000000  0.00000000  0.50000000 
  0.25000000  0.08333333  0.00000000 
  0.25000000  0.08333333  0.50000000 
  0.25000000  0.16666667  0.00000000 
  0.25000000  0.16666667  0.50000000 
  0.25000000  0.25000000  0.00000000 
  0.25000000  0.25000000  0.50000000 
  0.25000000  0.33333333  0.00000000 
  0.25000000  0.33333333  0.50000000 
  0.25000000  0.41666667  0.00000000 
  0.25000000  0.41666667  0.50000000 
  0.25000000  0.50000000  0.00000000 
  0.25000000  0.50000000  0.50000000 
  0.25000000  0.58333333  0.00000000 
  0.25000000  0.58333333  0.50000000 
  0.25000000  0.66666667  0.00000000 
  0.25000000  0.66666667  0.50000000 
  0.25000000  0.75000000  0.00000000 
  0.25000000  0.75000000  0.50000000 
  0.25000000  0.83333333  0.00000000 
  0.25000000  0.83333333  0.50000000 
  0.25000000  0.91666667  0.00000000 
  0.25000000  0.91666667  0.50000000 
  0.33333333  0.00000000  0.00000000 
  0.33333333  0.00000000  0.50000000 
  0.33333333  0.08333333  0.00000000 
  0.33333333  0.08333333  0.50000000 
  0.33333333  0.16666667  0.00000000 
  0.33333333  0.16666667  0.50000000 
  0.33333333  0.25000000  0.00000000 
  0.33333333  0.25000000  0.50000000 
  0.33333333  0.33333333  0.00000000 
  0.33333333  0.33333333  0.50000000 
  0.33333333  0.41666667  0.00000000 
  0.33333333  0.41666667  0.50000000 
  0.33333333  0.50000000  0.00000000 
  0.33333333  0.50000000  0.50000000 
  0.33333333  0.58333333  0.00000000 
  0.33333333  0.58333333  0.50000000 
  0.33333333  0.66666667  0.00000000 
  0.33333333  0.66666667  0.50000000 
  0.33333333  0.75000000  0.00000000 
  0.33333333  0.75000000  0.50000000 
  0.33333333  0.83333333  0.00000000 
  0.33333333  0.83333333  0.50000000 
  0.33333333  0.91666667  0.00000000 
  0.33333333  0.91666667  0.50000000 
  0.41666667  0.00000000  0.00000000 
  0.41666667  0.00000000  0.50000000 
  0.41666667  0.08333333  0.00000000 
  0.41666667  0.08333333  0.50000000 
  0.41666667  0.16666667  0.00000000 
  0.41666667  0.16666667  0.50000000 
  0.41666667  0.25000000  0.00000000 
  0.41666667  0.25000000  0.50000000 
  0.41666667  0.33333333  0.00000000 
  0.41666667  0.33333333  0.50000000 
  0.41666667  0.41666667  0.00000000 
  0.41666667  0.41666667  0.50000000 
  0.41666667  0.50000000  0.00000000 
  0.41666667  0.50000000  0.50000000 
  0.41666667  0.58333333  0.00000000 
  0.41666667  0.58333333  0.50000000 
  0.41666667  0.66666667  0.00000000 
  0.41666667  0.66666667  0.50000000 
  0.41666667  0.75000000  0.00000000 
  0.41666667  0.75000000  0.50000000 
  0.41666667  0.83333333  0.00000000 
  0.41666667  0.83333333  0.50000000 
  0.41666667  0.91666667  0.00000000 
  0.41666667  0.91666667  0.50000000 
  0.50000000  0.00000000  0.00000000 
  0.50000000  0.00000000  0.50000000 
  0.50000000  0.08333333  0.00000000 
  0.50000000  0.08333333  0.50000000 
  0.50000000  0.16666667  0.00000000 
  0.50000000  0.16666667  0.50000000 
  0.50000000  0.25000000  0.00000000 
  0.50000000  0.25000000  0.50000000 
  0.50000000  0.33333333  0.00000000 
  0.50000000  0.33333333  0.50000000 
  0.50000000  0.41666667  0.00000000 
  0.50000000  0.41666667  0.50000000 
  0.50000000  0.50000000  0.00000000 
  0.50000000  0.50000000  0.50000000 
  0.50000000  0.58333333  0.00000000 
  0.50000000  0.58333333  0.50000000 
  0.50000000  0.66666667  0.00000000 
  0.50000000  0.66666667  0.50000000 
  0.50000000  0.75000000  0.00000000 
  0.50000000  0.75000000  0.50000000 
  0.50000000  0.83333333  0.00000000 
  0.50000000  0.83333333  0.50000000 
  0.50000000  0.91666667  0.00000000 
  0.50000000  0.91666667  0.50000000 
  0.58333333  0.00000000  0.00000000 
  0.58333333  0.00000000  0.50000000 
  0.58333333  0.08333333  0.00000000 
  0.58333333  0.08333333  0.50000000 
  0.58333333  0.16666667  0.00000000 
  0.58333333  0.16666667  0.50000000 
  0.58333333  0.25000000  0.00000000 
  0.58333333  0.25000000  0.50000000 
  0.58333333  0.33333333  0.00000000 
  0.58333333  0.33333333  0.50000000 
  0.58333333  0.41666667  0.00000000 
  0.58333333  0.41666667  0.50000000 
  0.58333333  0.50000000  0.00000000 
  0.58333333  0.50000000  0.50000000 
  0.58333333  0.58333333  0.00000000 
  0.58333333  0.58333333  0.50000000 
  0.58333333  0.66666667  0.00000000 
  0.58333333  0.66666667  0.50000000 
  0.58333333  0.75000000  0.00000000 
  0.58333333  0.75000000  0.50000000 
  0.58333333  0.83333333  0.00000000 
  0.58333333  0.83333333  0.50000000 
  0.58333333  0.91666667  0.00000000 
  0.58333333  0.91666667  0.50000000 
  0.66666667  0.00000000  0.00000000 
  0.66666667  0.00000000  0.50000000 
  0.66666667  0.08333333  0.00000000 
  0.66666667  0.08333333  0.50000000 
  0.66666667  0.16666667  0.00000000 
  0.66666667  0.16666667  0.50000000 
  0.66666667  0.25000000  0.00000000 
  0.66666667  0.25000000  0.50000000 
  0.66666667  0.33333333  0.00000000 
  0.66666667  0.33333333  0.50000000 
  0.66666667  0.41666667  0.00000000 
  0.66666667  0.41666667  0.50000000 
  0.66666667  0.50000000  0.00000000 
  0.66666667  0.50000000  0.50000000 
  0.66666667  0.58333333  0.00000000 
  0.66666667  0.58333333  0.50000000 
  0.66666667  0.66666667  0.00000000 
  0.66666667  0.66666667  0.50000000 
  0.66666667  0.75000000  0.00000000 
  0.66666667  0.75000000  0.50000000 
  0.66666667  0.83333333  0.00000000 
  0.66666667  0.83333333  0.50000000 
  0.66666667  0.91666667  0.00000000 
  0.66666667  0.91666667  0.50000000 
  0.75000000  0.00000000  0.00000000 
  0.75000000  0.00000000  0.50000000 
  0.75000000  0.08333333  0.00000000 
  0.75000000  0.08333333  0.50000000 
  0.75000000  0.16666667  0.00000000 
  0.75000000  0.16666667  0.50000000 
  0.75000000  0.25000000  0.00000000 
  0.75000000  0.25000000  0.50000000 
  0.75000000  0.33333333  0.00000000 
  0.75000000  0.33333333  0.50000000 
  0.75000000  0.41666667  0.00000000 
  0.75000000  0.41666667  0.50000000 
  0.75000000  0.50000000  0.00000000 
  0.75000000  0.50000000  0.50000000 
  0.75000000  0.58333333  0.00000000 
  0.75000000  0.58333333  0.50000000 
  0.75000000  0.66666667  0.00000000 
  0.75000000  0.66666667  0.50000000 
  0.75000000  0.75000000  0.00000000 
  0.75000000  0.75000000  0.50000000 
  0.75000000  0.83333333  0.00000000 
  0.75000000  0.83333333  0.50000000 
  0.75000000  0.91666667  0.00000000 
  0.75000000  0.91666667  0.50000000 
  0.83333333  0.00000000  0.00000000 
  0.83333333  0.00000000  0.50000000 
  0.83333333  0.08333333  0.00000000 
  0.83333333  0.08333333  0.50000000 
  0.83333333  0.16666667  0.00000000 
  0.83333333  0.16666667  0.50000000 
  0.83333333  0.25000000  0.00000000 
  0.83333333  0.25000000  0.50000000 
  0.83333333  0.33333333  0.00000000 
  0.83333333  0.33333333  0.50000000 
  0.83333333  0.41666667  0.00000000 
  0.83333333  0.41666667  0.50000000 
  0.83333333  0.50000000  0.00000000 
  0.83333333  0.50000000  0.50000000 
  0.83333333  0.58333333  0.00000000 
  0.83333333  0.58333333  0.50000000 
  0.83333333  0.66666667  0.00000000 
  0.83333333  0.66666667  0.50000000 
  0.83333333  0.75000000  0.00000000 
  0.83333333  0.75000000  0.50000000 
  0.83333333  0.83333333  0.00000000 
  0.83333333  0.83333333  0.50000000 
  0.83333333  0.91666667  0.00000000 
  0.83333333  0.91666667  0.50000000 
  0.91666667  0.00000000  0.00000000 
  0.91666667  0.00000000  0.50000000 
  0.91666667  0.08333333  0.00000000 
  0.91666667  0.08333333  0.50000000 
  0.91666667  0.16666667  0.00000000 
  0.91666667  0.16666667  0.50000000 
  0.91666667  0.25000000  0.00000000 
  0.91666667  0.25000000  0.50000000 
  0.91666667  0.33333333  0.00000000 
  0.91666667  0.33333333  0.50000000 
  0.91666667  0.41666667  0.00000000 
  0.91666667  0.41666667  0.50000000 
  0.91666667  0.50000000  0.00000000 
  0.91666667  0.50000000  0.50000000 
  0.91666667  0.58333333  0.00000000 
  0.91666667  0.58333333  0.50000000 
  0.91666667  0.66666667  0.00000000 
  0.91666667  0.66666667  0.50000000 
  0.91666667  0.75000000  0.00000000 
  0.91666667  0.75000000  0.50000000 
  0.91666667  0.83333333  0.00000000 
  0.91666667  0.83333333  0.50000000 
  0.91666667  0.91666667  0.00000000 
  0.91666667  0.91666667  0.50000000 
end kpoints

begin kpoint_path
  G 0.00000 0.00000 0.0000  Z 0.00000 0.00000 0.5000 
  Z 0.00000 0.00000 0.5000  F 0.50000 0.50000 0.0000 
  F 0.50000 0.50000 0.0000  G 0.00000 0.00000 0.0000 
  G 0.00000 0.00000 0.0000  L 0.50000 0.00000 0.0000 
end kpoint_path

wannier_plot = .true.
write_hr = .true.
wannier_plot_supercell = 3
wannier_plot_format = cube
wannier_plot_mode = crystal
wannier_plot_radius = 2.5
wannier_plot_scale = 1.0
