Generated by VASPKIT code               
   1.00000000000000     
     3.3635995388000000    0.0000000000000000    0.0000000000000000
     0.0000000000000000    5.8550554561350001    0.0000000000000000
     0.0000000000000000    0.0000000000000000   20.2525882720999988
   Mo   S    Te
     2     2     2
Direct
  0.4999999904022943  0.1664384949291247  0.5070298542354479
  0.9999999889541087  0.6664384361756106  0.5070299454340343
  0.4999999857150002  0.8334606862798424  0.5796206707872145
  0.9999999897426051  0.3334607249672175  0.5796206680868750
  0.4999999935406194  0.8334339680312794  0.4133493518528439
  0.9999999916453746  0.3334337216169345  0.4133493916035675
 
  0.00000000E+00  0.00000000E+00  0.00000000E+00
  0.00000000E+00  0.00000000E+00  0.00000000E+00
  0.00000000E+00  0.00000000E+00  0.00000000E+00
  0.00000000E+00  0.00000000E+00  0.00000000E+00
  0.00000000E+00  0.00000000E+00  0.00000000E+00
  0.00000000E+00  0.00000000E+00  0.00000000E+00
